 DBCSR| CPU Multiplication driver                                           XSMM (U)
 DBCSR| Multrec recursion limit                                              512 (U)
 DBCSR| Multiplication stack size                                           1000 (D)
 DBCSR| Maximum elements for images                                    UNLIMITED (U)
 DBCSR| Multiplicative factor virtual images                                   1 (U)
 DBCSR| Use multiplication densification                                       T (D)
 DBCSR| Multiplication size stacks                                             3 (U)
 DBCSR| Use memory pool for CPU allocation                                     F (U)
 DBCSR| Number of 3D layers                                               SINGLE (U)
 DBCSR| Use MPI memory allocation                                              F (U)
 DBCSR| Use RMA algorithm                                                      F (U)
 DBCSR| Use Communication thread                                               T (U)
 DBCSR| Communication thread load                                             87 (D)
 DBCSR| MPI: My process id                                                     0
 DBCSR| MPI: Number of processes                                               1
 DBCSR| OMP: Current number of threads                                         1
 DBCSR| OMP: Max number of threads                                             1
 DBCSR| Split modifier for TAS multiplication algorithm                  1.0E+00 (U)


  **** **** ******  **  PROGRAM STARTED AT               2026-10-07 16:51:47.586
 ***** ** ***  *** **   PROGRAM STARTED ON                                r6i5n2
 **    ****   ******    PROGRAM STARTED BY                               a266017
 ***** **    ** ** **   PROGRAM PROCESS ID                                972882
  **** **  *******  **  PROGRAM STARTED IN /home/g7/a266017/VASP/cp2k/runs/rib_y
                                           _o37_al

 CP2K| version string:                                       CP2K version 2025.1
 CP2K| source code revision number:                                  git:9635df4
 CP2K| cp2kflags: omp libint fftw3 libxc libgrpp elpa parallel scalapack mpi_f08
 CP2K|             cosma xsmm plumed2 spglib mkl sirius libvori libbqb libvdwxc
 CP2K|             hdf5
 CP2K| is freely available from                            https://www.cp2k.org/
 CP2K| Program compiled at                          Fri Mar 13 14:45:02 JST 2026
 CP2K| Program compiled on                            s86fs1.tokai-sc.jaea.go.jp
 CP2K| Program compiled for                                                local
 CP2K| Data directory path                                                 /data
 CP2K| Input file name                                                   opt.inp
 
 GLOBAL| Force Environment number                                              1
 GLOBAL| Basis set file name                                        BASIS_MOLOPT
 GLOBAL| Potential file name                                      GTH_POTENTIALS
 GLOBAL| MM Potential file name                                     MM_POTENTIAL
 GLOBAL| Coordinate file name                                          start.xyz
 GLOBAL| Method name                                                        CP2K
 GLOBAL| Project name                                                        opt
 GLOBAL| Run type                                                        GEO_OPT
 GLOBAL| FFT library                                                       FFTW3
 GLOBAL| Diagonalization library                                            ELPA
 GLOBAL| DGEMM library                                                      BLAS
 GLOBAL| Minimum number of eigenvectors for ELPA usage                        16
 GLOBAL| Orthonormality check for eigenvectors                          DISABLED
 GLOBAL| Matrix multiplication library                                     COSMA
 GLOBAL| All-to-all communication in single precision                          F
 GLOBAL| FFTs using library dependent lengths                                  F
 GLOBAL| Grid backend                                                       AUTO
 GLOBAL| Global print level                                                  LOW
 GLOBAL| MPI I/O enabled                                                       T
 GLOBAL| Total number of message passing processes                             1
 GLOBAL| Number of threads for this process                                    1
 GLOBAL| This output is from process                                           0
 GLOBAL| OpenMP stack size per thread (OMP_STACKSIZE)                    default
 GLOBAL| CPU model name                Intel(R) Xeon(R) Gold 6242R CPU @ 3.10GHz
 GLOBAL| CPUID                                                              1003

 MEMORY| system memory details [Kb]
 MEMORY|                        rank 0           min           max       average
 MEMORY| MemTotal            196248260     196248260     196248260     196248260
 MEMORY| MemFree             181951520     181951520     181951520     181951520
 MEMORY| Buffers                     0             0             0             0
 MEMORY| Cached                9605664       9605664       9605664       9605664
 MEMORY| Slab                  1397540       1397540       1397540       1397540
 MEMORY| SReclaimable           245936        245936        245936        245936
 MEMORY| MemLikelyFree       191803120     191803120     191803120     191803120

 
 GENERATE|  Preliminary Number of Bonds generated:                             0
 GENERATE|  Achieved consistency in connectivity generation.

 *******************************************************************************
 *   ___                                                                       *
 *  /   \                                                                      *
 * [ABORT]                                                                     *
 *  \___/  The specified OLD file <BASIS_MOLOPT> cannot be opened. It does not *
 *    |                      exist. Data directory path: /data                 *
 *  O/|                                                                        *
 * /| |                                                                        *
 * / \                                                   common/cp_files.F:403 *
 *******************************************************************************


 ===== Routine Calling Stack ===== 

            3 read_qs_kind
            2 create_qs_kind_set
            1 CP2K
 DBCSR| CPU Multiplication driver                                           XSMM (U)
 DBCSR| Multrec recursion limit                                              512 (U)
 DBCSR| Multiplication stack size                                           1000 (D)
 DBCSR| Maximum elements for images                                    UNLIMITED (U)
 DBCSR| Multiplicative factor virtual images                                   1 (U)
 DBCSR| Use multiplication densification                                       T (D)
 DBCSR| Multiplication size stacks                                             3 (U)
 DBCSR| Use memory pool for CPU allocation                                     F (U)
 DBCSR| Number of 3D layers                                               SINGLE (U)
 DBCSR| Use MPI memory allocation                                              F (U)
 DBCSR| Use RMA algorithm                                                      F (U)
 DBCSR| Use Communication thread                                               T (U)
 DBCSR| Communication thread load                                             87 (D)
 DBCSR| MPI: My process id                                                     0
 DBCSR| MPI: Number of processes                                               1
 DBCSR| OMP: Current number of threads                                         1
 DBCSR| OMP: Max number of threads                                             1
 DBCSR| Split modifier for TAS multiplication algorithm                  1.0E+00 (U)


  **** **** ******  **  PROGRAM STARTED AT               2026-10-08 05:08:00.115
 ***** ** ***  *** **   PROGRAM STARTED ON                                r6i5n2
 **    ****   ******    PROGRAM STARTED BY                               a266017
 ***** **    ** ** **   PROGRAM PROCESS ID                                976803
  **** **  *******  **  PROGRAM STARTED IN /home/g7/a266017/VASP/cp2k/runs/rib_y
                                           _o37_al

 CP2K| version string:                                       CP2K version 2025.1
 CP2K| source code revision number:                                  git:9635df4
 CP2K| cp2kflags: omp libint fftw3 libxc libgrpp elpa parallel scalapack mpi_f08
 CP2K|             cosma xsmm plumed2 spglib mkl sirius libvori libbqb libvdwxc
 CP2K|             hdf5
 CP2K| is freely available from                            https://www.cp2k.org/
 CP2K| Program compiled at                          Fri Mar 13 14:45:02 JST 2026
 CP2K| Program compiled on                            s86fs1.tokai-sc.jaea.go.jp
 CP2K| Program compiled for                                                local
 CP2K| Data directory path                /home/center/app/CP2K/cp2k-2025.1/data
 CP2K| Input file name                                                   opt.inp
 
 GLOBAL| Force Environment number                                              1
 GLOBAL| Basis set file name                                        BASIS_MOLOPT
 GLOBAL| Potential file name                                      GTH_POTENTIALS
 GLOBAL| MM Potential file name                                     MM_POTENTIAL
 GLOBAL| Coordinate file name                                          start.xyz
 GLOBAL| Method name                                                        CP2K
 GLOBAL| Project name                                                        opt
 GLOBAL| Run type                                                        GEO_OPT
 GLOBAL| FFT library                                                       FFTW3
 GLOBAL| Diagonalization library                                            ELPA
 GLOBAL| DGEMM library                                                      BLAS
 GLOBAL| Minimum number of eigenvectors for ELPA usage                        16
 GLOBAL| Orthonormality check for eigenvectors                          DISABLED
 GLOBAL| Matrix multiplication library                                     COSMA
 GLOBAL| All-to-all communication in single precision                          F
 GLOBAL| FFTs using library dependent lengths                                  F
 GLOBAL| Grid backend                                                       AUTO
 GLOBAL| Global print level                                                  LOW
 GLOBAL| MPI I/O enabled                                                       T
 GLOBAL| Total number of message passing processes                             1
 GLOBAL| Number of threads for this process                                    1
 GLOBAL| This output is from process                                           0
 GLOBAL| OpenMP stack size per thread (OMP_STACKSIZE)                    default
 GLOBAL| CPU model name                Intel(R) Xeon(R) Gold 6242R CPU @ 3.10GHz
 GLOBAL| CPUID                                                              1003

 MEMORY| system memory details [Kb]
 MEMORY|                        rank 0           min           max       average
 MEMORY| MemTotal            196248260     196248260     196248260     196248260
 MEMORY| MemFree             182736040     182736040     182736040     182736040
 MEMORY| Buffers                     0             0             0             0
 MEMORY| Cached                9006420       9006420       9006420       9006420
 MEMORY| Slab                  1242348       1242348       1242348       1242348
 MEMORY| SReclaimable           182944        182944        182944        182944
 MEMORY| MemLikelyFree       191925404     191925404     191925404     191925404

 
 GENERATE|  Preliminary Number of Bonds generated:                             0
 GENERATE|  Achieved consistency in connectivity generation.

 *******************************************************************************
 *******************************************************************************
 **                                                                           **
 **     #####                         ##              ##                      **
 **    ##   ##            ##          ##              ##                      **
 **   ##     ##                       ##            ######                    **
 **   ##     ##  ##   ##  ##   #####  ##  ##   ####   ##    #####    #####    **
 **   ##     ##  ##   ##  ##  ##      ## ##   ##      ##   ##   ##  ##   ##   **
 **   ##  ## ##  ##   ##  ##  ##      ####     ###    ##   ######   ######    **
 **    ##  ###   ##   ##  ##  ##      ## ##      ##   ##   ##       ##        **
 **     #######   #####   ##   #####  ##  ##  ####    ##    #####   ##        **
 **           ##                                                    ##        **
 **                                                                           **
 **                                                ... make the atoms dance   **
 **                                                                           **
 **            Copyright (C) by CP2K developers group (2000-2025)             **
 **                      J. Chem. Phys. 152, 194103 (2020)                    **
 **                                                                           **
 *******************************************************************************


 TOTAL NUMBERS AND MAXIMUM NUMBERS

  Total number of            - Atomic kinds:                                   4
                             - Atoms:                                         95
                             - Shell sets:                                    95
                             - Shells:                                       172
                             - Primitive Cartesian functions:                451
                             - Cartesian basis functions:                    326
                             - Spherical basis functions:                    326

  Maximum angular momentum of- Orbital basis functions:                        1
                             - Local part of the GTH pseudopotential:          2
                             - Non-local part of the GTH pseudopotential:      2


 SCF PARAMETERS         Density guess:                                    ATOMIC
                        --------------------------------------------------------
                        max_scf:                                             200
                        max_scf_history:                                       0
                        max_diis:                                              4
                        --------------------------------------------------------
                        eps_scf:                                        1.00E-05
                        eps_scf_history:                                0.00E+00
                        eps_diis:                                       1.00E-01
                        eps_eigval:                                     1.00E-05
                        --------------------------------------------------------
                        level_shift [a.u.]:                             0.000000
                        --------------------------------------------------------
                        No outer SCF

 *******************************************************************************
 ***                     STARTING GEOMETRY OPTIMIZATION                      ***
 ***                                 L-BFGS                                  ***
 *******************************************************************************

 --------------------------
 OPTIMIZATION STEP:      1
 --------------------------

 Number of electrons:                                                        424
 Number of occupied orbitals:                                                212
 Number of molecular orbitals:                                               212

 Number of orbital functions:                                                326
 Number of independent orbital functions:                                    326

 Extrapolation method: initial_guess


 SCF WAVEFUNCTION OPTIMIZATION

  ----------------------------------- OT ---------------------------------------
  Minimizer      : DIIS                : direct inversion
                                         in the iterative subspace
                                         using   7 DIIS vectors
                                         safer DIIS on
  Preconditioner : FULL_SINGLE_INVERSE : inversion of 
                                         H + eS - 2*(Sc)(c^T*H*c+const)(Sc)^T
  Precond_solver : DEFAULT
  stepsize       :    0.08000000                  energy_gap     :    0.08000000
  eps_taylor     :   0.10000E-15                  max_taylor     :             4
  ----------------------------------- OT ---------------------------------------

  Step     Update method      Time    Convergence         Total energy    Change
  ------------------------------------------------------------------------------
     1 OT DIIS     0.80E-01    5.1     0.05153474      -915.4869572962 -9.15E+02
     2 OT DIIS     0.80E-01    6.2     0.11082648      -919.9707730612 -4.48E+00
     3 OT DIIS     0.80E-01    6.2     0.04671863      -925.7530387369 -5.78E+00
     4 OT DIIS     0.80E-01    6.2     0.03819531      -929.1613797977 -3.41E+00
     5 OT DIIS     0.80E-01    6.2     0.02260242      -932.5247501378 -3.36E+00
     6 OT DIIS     0.80E-01    6.2     0.01312088      -935.2801344581 -2.76E+00
     7 OT DIIS     0.80E-01    6.2     0.00903670      -936.1399627315 -8.60E-01
     8 OT DIIS     0.80E-01    6.2     0.00574202      -936.7188673403 -5.79E-01
     9 OT DIIS     0.80E-01    6.2     0.00426668      -936.9128885051 -1.94E-01
    10 OT DIIS     0.80E-01    6.1     0.00301299      -937.0761524643 -1.63E-01
    11 OT DIIS     0.80E-01    6.2     0.00228444      -937.1604570512 -8.43E-02
    12 OT DIIS     0.80E-01    6.2     0.00179729      -937.2175135697 -5.71E-02
    13 OT DIIS     0.80E-01    6.2     0.00155981      -937.2539506447 -3.64E-02
    14 OT DIIS     0.80E-01    6.2     0.00153500      -937.2783256375 -2.44E-02
    15 OT SD       0.80E-01    6.2     0.00156196      -937.2849187451 -6.59E-03
    16 OT SD       0.80E-01    6.2     0.00161234      -937.2985926801 -1.37E-02
    17 OT SD       0.80E-01    6.2     0.00166507      -937.3131902490 -1.46E-02
    18 OT SD       0.80E-01    6.1     0.00170413      -937.3287005549 -1.55E-02
    19 OT SD       0.80E-01    6.2     0.00171833      -937.3448328477 -1.61E-02
    20 OT DIIS     0.80E-01    6.1     0.00170267      -937.3610943311 -1.63E-02
    21 OT DIIS     0.80E-01    6.2     0.00259692      -937.3640930140 -3.00E-03
    22 OT SD       0.80E-01    6.2     0.00264049      -937.3662591467 -2.17E-03
    23 OT SD       0.80E-01    6.2     0.00195267      -937.3980243984 -3.18E-02
    24 OT SD       0.80E-01    6.2     0.00167055      -937.4172970884 -1.93E-02
    25 OT DIIS     0.80E-01    6.2     0.00148650      -937.4317783746 -1.45E-02
    26 OT DIIS     0.80E-01    6.1     0.00244784      -937.4500736512 -1.83E-02
    27 OT SD       0.80E-01    6.2     0.00117940      -937.4661936433 -1.61E-02
    28 OT SD       0.80E-01    6.2     0.00102103      -937.4730634204 -6.87E-03
    29 OT DIIS     0.80E-01    6.2     0.00094281      -937.4785346205 -5.47E-03
    30 OT DIIS     0.80E-01    6.1     0.00075710      -937.5028139684 -2.43E-02
    31 OT DIIS     0.80E-01    6.2     0.00063371      -937.5070006582 -4.19E-03
    32 OT DIIS     0.80E-01    6.2     0.00058308      -937.5105769776 -3.58E-03
    33 OT DIIS     0.80E-01    6.2     0.00053571      -937.5142826074 -3.71E-03
    34 OT DIIS     0.80E-01    6.2     0.00048116      -937.5189393688 -4.66E-03
    35 OT DIIS     0.80E-01    6.2     0.00041717      -937.5243490168 -5.41E-03
    36 OT DIIS     0.80E-01    6.1     0.00036722      -937.5282711288 -3.92E-03
    37 OT DIIS     0.80E-01    6.2     0.00032181      -937.5320728044 -3.80E-03
    38 OT DIIS     0.80E-01    6.2     0.00028830      -937.5348242291 -2.75E-03
    39 OT DIIS     0.80E-01    6.1     0.00025787      -937.5372258102 -2.40E-03
    40 OT DIIS     0.80E-01    6.2     0.00022423      -937.5395545791 -2.33E-03
    41 OT DIIS     0.80E-01    6.2     0.00020202      -937.5412173338 -1.66E-03
    42 OT DIIS     0.80E-01    6.2     0.00018322      -937.5421996637 -9.82E-04
    43 OT DIIS     0.80E-01    6.2     0.00016564      -937.5431565387 -9.57E-04
    44 OT DIIS     0.80E-01    6.1     0.00015220      -937.5441295017 -9.73E-04
    45 OT DIIS     0.80E-01    6.2     0.00013467      -937.5447061862 -5.77E-04
    46 OT DIIS     0.80E-01    6.2     0.00012570      -937.5453324896 -6.26E-04
    47 OT DIIS     0.80E-01    6.2     0.00011005      -937.5457774841 -4.45E-04
    48 OT DIIS     0.80E-01    6.2     0.00010020      -937.5461254326 -3.48E-04
    49 OT DIIS     0.80E-01    6.2     0.00009132      -937.5463713454 -2.46E-04
    50 OT DIIS     0.80E-01    6.2     0.00008498      -937.5466017039 -2.30E-04
    51 OT DIIS     0.80E-01    6.1     0.00008001      -937.5468139860 -2.12E-04
    52 OT DIIS     0.80E-01    6.2     0.00007474      -937.5470008197 -1.87E-04
    53 OT DIIS     0.80E-01    6.2     0.00007091      -937.5471411575 -1.40E-04
    54 OT DIIS     0.80E-01    6.2     0.00006773      -937.5473412525 -2.00E-04
    55 OT DIIS     0.80E-01    6.2     0.00006498      -937.5474607370 -1.19E-04
    56 OT DIIS     0.80E-01    6.2     0.00006232      -937.5475830343 -1.22E-04
    57 OT DIIS     0.80E-01    6.2     0.00005983      -937.5477270310 -1.44E-04
    58 OT DIIS     0.80E-01    6.2     0.00005594      -937.5479556926 -2.29E-04
    59 OT DIIS     0.80E-01    6.2     0.00005395      -937.5480442265 -8.85E-05
    60 OT DIIS     0.80E-01    6.1     0.00005302      -937.5482363794 -1.92E-04
    61 OT DIIS     0.80E-01    6.2     0.00004835      -937.5483563814 -1.20E-04
    62 OT DIIS     0.80E-01    6.2     0.00004661      -937.5484756268 -1.19E-04
    63 OT DIIS     0.80E-01    6.2     0.00004409      -937.5486082313 -1.33E-04
    64 OT DIIS     0.80E-01    6.2     0.00004190      -937.5487264749 -1.18E-04
    65 OT DIIS     0.80E-01    6.2     0.00004060      -937.5488277748 -1.01E-04
    66 OT DIIS     0.80E-01    6.2     0.00003828      -937.5488992961 -7.15E-05
    67 OT DIIS     0.80E-01    6.2     0.00003675      -937.5489691532 -6.99E-05
    68 OT DIIS     0.80E-01    6.2     0.00003759      -937.5490760671 -1.07E-04
    69 OT DIIS     0.80E-01    6.2     0.00003418      -937.5491043825 -2.83E-05
    70 OT DIIS     0.80E-01    6.2     0.00003250      -937.5491466792 -4.23E-05
    71 OT DIIS     0.80E-01    6.2     0.00003100      -937.5491987781 -5.21E-05
    72 OT DIIS     0.80E-01    6.2     0.00002856      -937.5492656776 -6.69E-05
    73 OT DIIS     0.80E-01    6.2     0.00002641      -937.5493176652 -5.20E-05
    74 OT SD       0.80E-01    6.2     0.00002954      -937.5493957234 -7.81E-05
    75 OT DIIS     0.80E-01    6.2     0.00002394      -937.5493994982 -3.77E-06
    76 OT DIIS     0.80E-01    6.2     0.00002281      -937.5494276368 -2.81E-05
    77 OT DIIS     0.80E-01    6.2     0.00002080      -937.5494621584 -3.45E-05
    78 OT DIIS     0.80E-01    6.2     0.00001939      -937.5494897982 -2.76E-05
    79 OT DIIS     0.80E-01    6.2     0.00001740      -937.5495193578 -2.96E-05
    80 OT DIIS     0.80E-01    6.2     0.00001601      -937.5495447474 -2.54E-05
    81 OT DIIS     0.80E-01    6.2     0.00001495      -937.5495598365 -1.51E-05
    82 OT DIIS     0.80E-01    6.2     0.00001407      -937.5495683048 -8.47E-06
    83 OT DIIS     0.80E-01    6.2     0.00001347      -937.5495773092 -9.00E-06
    84 OT DIIS     0.80E-01    6.2     0.00001282      -937.5495874893 -1.02E-05
    85 OT DIIS     0.80E-01    6.2     0.00001195      -937.5495996019 -1.21E-05
    86 OT DIIS     0.80E-01    6.2     0.00001107      -937.5496148057 -1.52E-05
    87 OT DIIS     0.80E-01    6.2     0.00001045      -937.5496251262 -1.03E-05
    88 OT DIIS     0.80E-01    6.2     0.00001008      -937.5496321837 -7.06E-06
    89 OT DIIS     0.80E-01    6.2     0.00000955      -937.5496411636 -8.98E-06

  *** SCF run converged in    89 steps ***


  Electronic density on regular grids:       -423.9999989986        0.0000010014
  Core density on regular grids:              423.9999999738       -0.0000000262
  Total charge density on r-space grids:        0.0000009752
  Total charge density g-space grids:           0.0000009752

  Overlap energy of the core charge distribution:               0.00000102291144
  Self energy of the core charge distribution:              -2435.54055198066590
  Core Hamiltonian energy:                                    727.94317520641721
  Hartree energy:                                             997.49189846246009
  Exchange-correlation energy:                               -227.44416387467911

  Total energy:                                              -937.54964116355632

 ENERGY| Total FORCE_EVAL ( QS ) energy [hartree]           -937.549651376689667

 Number of electrons:                                                        424
 Number of occupied orbitals:                                                212
 Number of molecular orbitals:                                               212

 Number of orbital functions:                                                326
 Number of independent orbital functions:                                    326

 Extrapolation method: ASPC


 SCF WAVEFUNCTION OPTIMIZATION

  ----------------------------------- OT ---------------------------------------
  Minimizer      : DIIS                : direct inversion
                                         in the iterative subspace
                                         using   7 DIIS vectors
                                         safer DIIS on
  Preconditioner : FULL_SINGLE_INVERSE : inversion of 
                                         H + eS - 2*(Sc)(c^T*H*c+const)(Sc)^T
  Precond_solver : DEFAULT
  stepsize       :    0.08000000                  energy_gap     :    0.08000000
  eps_taylor     :   0.10000E-15                  max_taylor     :             4
  ----------------------------------- OT ---------------------------------------

  Step     Update method      Time    Convergence         Total energy    Change
  ------------------------------------------------------------------------------
     1 OT DIIS     0.80E-01    5.0     0.00603610      -937.6706732527 -9.38E+02
     2 OT DIIS     0.80E-01    6.1     0.00770546      -937.6938815798 -2.32E-02
     3 OT DIIS     0.80E-01    6.1     0.00352103      -937.7487667903 -5.49E-02
     4 OT DIIS     0.80E-01    6.2     0.00236029      -937.7584471056 -9.68E-03
     5 OT DIIS     0.80E-01    6.2     0.00092203      -937.7666771349 -8.23E-03
     6 OT DIIS     0.80E-01    6.1     0.00059247      -937.7690751655 -2.40E-03
     7 OT DIIS     0.80E-01    6.2     0.00051005      -937.7699562365 -8.81E-04
     8 OT DIIS     0.80E-01    6.2     0.00029338      -937.7705328988 -5.77E-04
     9 OT DIIS     0.80E-01    6.1     0.00021759      -937.7708943783 -3.61E-04
    10 OT DIIS     0.80E-01    6.1     0.00018889      -937.7711319239 -2.38E-04
    11 OT DIIS     0.80E-01    6.1     0.00015277      -937.7712267525 -9.48E-05
    12 OT DIIS     0.80E-01    6.1     0.00014231      -937.7712933893 -6.66E-05
    13 OT DIIS     0.80E-01    6.1     0.00008355      -937.7713205543 -2.72E-05
    14 OT DIIS     0.80E-01    6.1     0.00005107      -937.7713424611 -2.19E-05
    15 OT DIIS     0.80E-01    6.1     0.00004486      -937.7713516138 -9.15E-06
    16 OT DIIS     0.80E-01    6.1     0.00003647      -937.7713564582 -4.84E-06
    17 OT DIIS     0.80E-01    6.1     0.00002508      -937.7713599044 -3.45E-06
    18 OT DIIS     0.80E-01    6.1     0.00002209      -937.7713625033 -2.60E-06
    19 OT DIIS     0.80E-01    6.1     0.00002078      -937.7713638778 -1.37E-06
    20 OT DIIS     0.80E-01    6.1     0.00001820      -937.7713656733 -1.80E-06
    21 OT DIIS     0.80E-01    6.1     0.00001728      -937.7713665191 -8.46E-07
    22 OT DIIS     0.80E-01    6.1     0.00001377      -937.7713680143 -1.50E-06
    23 OT DIIS     0.80E-01    6.2     0.00001299      -937.7713693035 -1.29E-06
    24 OT DIIS     0.80E-01    6.2     0.00001236      -937.7713703844 -1.08E-06
    25 OT DIIS     0.80E-01    6.2     0.00001148      -937.7713715089 -1.12E-06
    26 OT DIIS     0.80E-01    6.1     0.00001090      -937.7713728316 -1.32E-06
    27 OT DIIS     0.80E-01    6.1     0.00001101      -937.7713741252 -1.29E-06
    28 OT DIIS     0.80E-01    6.1     0.00001026      -937.7713754075 -1.28E-06
    29 OT DIIS     0.80E-01    6.1     0.00001052      -937.7713766426 -1.24E-06
    30 OT DIIS     0.80E-01    6.2     0.00000903      -937.7713781405 -1.50E-06

  *** SCF run converged in    30 steps ***


  Electronic density on regular grids:       -423.9999983343        0.0000016657
  Core density on regular grids:              423.9999999740       -0.0000000260
  Total charge density on r-space grids:        0.0000016396
  Total charge density g-space grids:           0.0000016396

  Overlap energy of the core charge distribution:               0.00000079854815
  Self energy of the core charge distribution:              -2435.54055198066590
  Core Hamiltonian energy:                                    725.27106865272719
  Hartree energy:                                             999.23038055263430
  Exchange-correlation energy:                               -226.73227616377207

  Total energy:                                              -937.77137814052844

 ENERGY| Total FORCE_EVAL ( QS ) energy [hartree]           -937.771379683246437

 OPT| **************************************************************************
 OPT| Step number                                                              1
 OPT| Optimization method                                                  LBFGS
 OPT| Total energy [hartree]                                     -937.7713796832
 OPT| Effective energy change [hartree]                            -0.2217283066
 OPT| Decrease in energy                                                     YES
 OPT| Used time [s]                                                      748.582
 OPT|
 OPT| Maximum step size                                             0.2002801081
 OPT| Convergence limit for maximum step size                       0.0030000000
 OPT| Maximum step size is converged                                          NO
 OPT|
 OPT| RMS step size                                                 0.0592348878
 OPT| Convergence limit for RMS step size                           0.0015000000
 OPT| RMS step size is converged                                              NO
 OPT|
 OPT| Maximum gradient                                              0.0874326282
 OPT| Convergence limit for maximum gradient                        0.0010000000
 OPT| Maximum gradient is converged                                           NO
 OPT|
 OPT| RMS gradient                                                  0.0229946190
 OPT| Convergence limit for RMS gradient                            0.0003000000
 OPT| RMS gradient is converged                                               NO
 OPT| **************************************************************************
 OPT| Estimated peak process memory after this step [MiB]                   1695

 --------------------------
 OPTIMIZATION STEP:      2
 --------------------------

 Number of electrons:                                                        424
 Number of occupied orbitals:                                                212
 Number of molecular orbitals:                                               212

 Number of orbital functions:                                                326
 Number of independent orbital functions:                                    326

 Extrapolation method: ASPC


 SCF WAVEFUNCTION OPTIMIZATION

  ----------------------------------- OT ---------------------------------------
  Minimizer      : DIIS                : direct inversion
                                         in the iterative subspace
                                         using   7 DIIS vectors
                                         safer DIIS on
  Preconditioner : FULL_SINGLE_INVERSE : inversion of 
                                         H + eS - 2*(Sc)(c^T*H*c+const)(Sc)^T
  Precond_solver : DEFAULT
  stepsize       :    0.08000000                  energy_gap     :    0.08000000
  eps_taylor     :   0.10000E-15                  max_taylor     :             4
  ----------------------------------- OT ---------------------------------------

  Step     Update method      Time    Convergence         Total energy    Change
  ------------------------------------------------------------------------------
     1 OT DIIS     0.80E-01    4.9     0.00596974      -937.7837874676 -9.38E+02
     2 OT DIIS     0.80E-01    6.1     0.00639340      -937.8298766302 -4.61E-02
     3 OT DIIS     0.80E-01    6.1     0.00414994      -937.8646582731 -3.48E-02
     4 OT DIIS     0.80E-01    6.1     0.00237203      -937.8768144118 -1.22E-02
     5 OT DIIS     0.80E-01    6.1     0.00113879      -937.8838979492 -7.08E-03
     6 OT DIIS     0.80E-01    6.1     0.00060027      -937.8866731686 -2.78E-03
     7 OT DIIS     0.80E-01    6.1     0.00047352      -937.8873807641 -7.08E-04
     8 OT DIIS     0.80E-01    6.1     0.00026526      -937.8878037205 -4.23E-04
     9 OT DIIS     0.80E-01    6.1     0.00018552      -937.8879848275 -1.81E-04
    10 OT DIIS     0.80E-01    6.1     0.00016695      -937.8881237744 -1.39E-04
    11 OT DIIS     0.80E-01    6.1     0.00012659      -937.8881868546 -6.31E-05
    12 OT DIIS     0.80E-01    6.1     0.00013131      -937.8882275007 -4.06E-05
    13 OT DIIS     0.80E-01    6.1     0.00007469      -937.8882582719 -3.08E-05
    14 OT DIIS     0.80E-01    6.1     0.00005606      -937.8882751861 -1.69E-05
    15 OT DIIS     0.80E-01    6.1     0.00004527      -937.8882871949 -1.20E-05
    16 OT DIIS     0.80E-01    6.1     0.00003856      -937.8882938722 -6.68E-06
    17 OT DIIS     0.80E-01    6.1     0.00002622      -937.8882980180 -4.15E-06
    18 OT DIIS     0.80E-01    6.1     0.00002226      -937.8883006522 -2.63E-06
    19 OT DIIS     0.80E-01    6.1     0.00001846      -937.8883018493 -1.20E-06
    20 OT DIIS     0.80E-01    6.1     0.00001803      -937.8883027747 -9.25E-07
    21 OT DIIS     0.80E-01    6.1     0.00001276      -937.8883033556 -5.81E-07
    22 OT DIIS     0.80E-01    6.1     0.00001059      -937.8883038702 -5.15E-07
    23 OT DIIS     0.80E-01    6.1     0.00000889      -937.8883042577 -3.88E-07

  *** SCF run converged in    23 steps ***


  Electronic density on regular grids:       -423.9999994560        0.0000005440
  Core density on regular grids:              423.9999999742       -0.0000000258
  Total charge density on r-space grids:        0.0000005182
  Total charge density g-space grids:           0.0000005182

  Overlap energy of the core charge distribution:               0.00000058475502
  Self energy of the core charge distribution:              -2435.54055198066590
  Core Hamiltonian energy:                                    723.79826556383205
  Hartree energy:                                            1000.29908916097725
  Exchange-correlation energy:                               -226.44510758663355

  Total energy:                                              -937.88830425773506

 ENERGY| Total FORCE_EVAL ( QS ) energy [hartree]           -937.888304543438494

 OPT| **************************************************************************
 OPT| Step number                                                              2
 OPT| Optimization method                                                  LBFGS
 OPT| Total energy [hartree]                                     -937.8883045434
 OPT| Effective energy change [hartree]                            -0.1169248602
 OPT| Decrease in energy                                                     YES
 OPT| Used time [s]                                                      149.165
 OPT|
 OPT| Maximum step size                                             0.0990671145
 OPT| Convergence limit for maximum step size                       0.0030000000
 OPT| Maximum step size is converged                                          NO
 OPT|
 OPT| RMS step size                                                 0.0267984351
 OPT| Convergence limit for RMS step size                           0.0015000000
 OPT| RMS step size is converged                                              NO
 OPT|
 OPT| Maximum gradient                                              0.0548543934
 OPT| Convergence limit for maximum gradient                        0.0010000000
 OPT| Maximum gradient is converged                                           NO
 OPT|
 OPT| RMS gradient                                                  0.0155667662
 OPT| Convergence limit for RMS gradient                            0.0003000000
 OPT| RMS gradient is converged                                               NO
 OPT| **************************************************************************
 OPT| Estimated peak process memory after this step [MiB]                   1695

 --------------------------
 OPTIMIZATION STEP:      3
 --------------------------

 Number of electrons:                                                        424
 Number of occupied orbitals:                                                212
 Number of molecular orbitals:                                               212

 Number of orbital functions:                                                326
 Number of independent orbital functions:                                    326

 Extrapolation method: ASPC


 SCF WAVEFUNCTION OPTIMIZATION

  ----------------------------------- OT ---------------------------------------
  Minimizer      : DIIS                : direct inversion
                                         in the iterative subspace
                                         using   7 DIIS vectors
                                         safer DIIS on
  Preconditioner : FULL_SINGLE_INVERSE : inversion of 
                                         H + eS - 2*(Sc)(c^T*H*c+const)(Sc)^T
  Precond_solver : DEFAULT
  stepsize       :    0.08000000                  energy_gap     :    0.08000000
  eps_taylor     :   0.10000E-15                  max_taylor     :             4
  ----------------------------------- OT ---------------------------------------

  Step     Update method      Time    Convergence         Total energy    Change
  ------------------------------------------------------------------------------
     1 OT DIIS     0.80E-01    4.9     0.00381670      -937.9983091908 -9.38E+02
     2 OT DIIS     0.80E-01    6.1     0.00482700      -938.0186683099 -2.04E-02
     3 OT DIIS     0.80E-01    6.1     0.00232858      -938.0379998768 -1.93E-02
     4 OT DIIS     0.80E-01    6.1     0.00167729      -938.0438399204 -5.84E-03
     5 OT DIIS     0.80E-01    6.1     0.00067441      -938.0478200692 -3.98E-03
     6 OT DIIS     0.80E-01    6.1     0.00044548      -938.0487684153 -9.48E-04
     7 OT DIIS     0.80E-01    6.1     0.00027417      -938.0491366780 -3.68E-04
     8 OT DIIS     0.80E-01    6.1     0.00014696      -938.0493359967 -1.99E-04
     9 OT DIIS     0.80E-01    6.1     0.00011539      -938.0494405485 -1.05E-04
    10 OT DIIS     0.80E-01    6.1     0.00010936      -938.0494794843 -3.89E-05
    11 OT DIIS     0.80E-01    6.1     0.00007507      -938.0495147274 -3.52E-05
    12 OT DIIS     0.80E-01    6.1     0.00007600      -938.0495316742 -1.69E-05
    13 OT DIIS     0.80E-01    6.1     0.00004397      -938.0495427676 -1.11E-05
    14 OT DIIS     0.80E-01    6.1     0.00003586      -938.0495498468 -7.08E-06
    15 OT DIIS     0.80E-01    6.1     0.00002876      -938.0495538156 -3.97E-06
    16 OT DIIS     0.80E-01    6.1     0.00002102      -938.0495566747 -2.86E-06
    17 OT DIIS     0.80E-01    6.1     0.00001725      -938.0495593059 -2.63E-06
    18 OT DIIS     0.80E-01    6.1     0.00001814      -938.0495607144 -1.41E-06
    19 OT DIIS     0.80E-01    6.1     0.00001489      -938.0495620553 -1.34E-06
    20 OT DIIS     0.80E-01    6.1     0.00001533      -938.0495634350 -1.38E-06
    21 OT DIIS     0.80E-01    6.1     0.00001304      -938.0495644720 -1.04E-06
    22 OT DIIS     0.80E-01    6.1     0.00001198      -938.0495659592 -1.49E-06
    23 OT DIIS     0.80E-01    6.1     0.00001090      -938.0495670867 -1.13E-06
    24 OT DIIS     0.80E-01    6.1     0.00000964      -938.0495682700 -1.18E-06

  *** SCF run converged in    24 steps ***


  Electronic density on regular grids:       -424.0000002044       -0.0000002044
  Core density on regular grids:              423.9999999740       -0.0000000260
  Total charge density on r-space grids:       -0.0000002304
  Total charge density g-space grids:          -0.0000002304

  Overlap energy of the core charge distribution:               0.00000033734014
  Self energy of the core charge distribution:              -2435.54055198066590
  Core Hamiltonian energy:                                    719.69958986663073
  Hartree energy:                                            1003.32916373250146
  Exchange-correlation energy:                               -225.53777022577296

  Total energy:                                              -938.04956826996647

 ENERGY| Total FORCE_EVAL ( QS ) energy [hartree]           -938.049569537460570

 OPT| **************************************************************************
 OPT| Step number                                                              3
 OPT| Optimization method                                                  LBFGS
 OPT| Total energy [hartree]                                     -938.0495695375
 OPT| Effective energy change [hartree]                            -0.1612649940
 OPT| Decrease in energy                                                     YES
 OPT| Used time [s]                                                      154.956
 OPT|
 OPT| Maximum step size                                             0.2240571715
 OPT| Convergence limit for maximum step size                       0.0030000000
 OPT| Maximum step size is converged                                          NO
 OPT|
 OPT| RMS step size                                                 0.0705289149
 OPT| Convergence limit for RMS step size                           0.0015000000
 OPT| RMS step size is converged                                              NO
 OPT|
 OPT| Maximum gradient                                              0.0499504289
 OPT| Convergence limit for maximum gradient                        0.0010000000
 OPT| Maximum gradient is converged                                           NO
 OPT|
 OPT| RMS gradient                                                  0.0162540412
 OPT| Convergence limit for RMS gradient                            0.0003000000
 OPT| RMS gradient is converged                                               NO
 OPT| **************************************************************************
 OPT| Estimated peak process memory after this step [MiB]                   1749

 --------------------------
 OPTIMIZATION STEP:      4
 --------------------------

 Number of electrons:                                                        424
 Number of occupied orbitals:                                                212
 Number of molecular orbitals:                                               212

 Number of orbital functions:                                                326
 Number of independent orbital functions:                                    326

 Extrapolation method: ASPC


 SCF WAVEFUNCTION OPTIMIZATION

  ----------------------------------- OT ---------------------------------------
  Minimizer      : DIIS                : direct inversion
                                         in the iterative subspace
                                         using   7 DIIS vectors
                                         safer DIIS on
  Preconditioner : FULL_SINGLE_INVERSE : inversion of 
                                         H + eS - 2*(Sc)(c^T*H*c+const)(Sc)^T
  Precond_solver : DEFAULT
  stepsize       :    0.08000000                  energy_gap     :    0.08000000
  eps_taylor     :   0.10000E-15                  max_taylor     :             4
  ----------------------------------- OT ---------------------------------------

  Step     Update method      Time    Convergence         Total energy    Change
  ------------------------------------------------------------------------------
     1 OT DIIS     0.80E-01    4.9     0.00480196      -938.1023625169 -9.38E+02
     2 OT DIIS     0.80E-01    6.1     0.00412547      -938.1356309649 -3.33E-02
     3 OT DIIS     0.80E-01    6.1     0.00187883      -938.1560256067 -2.04E-02
     4 OT DIIS     0.80E-01    6.1     0.00128624      -938.1604602077 -4.43E-03
     5 OT DIIS     0.80E-01    6.1     0.00072579      -938.1632216416 -2.76E-03
     6 OT DIIS     0.80E-01    6.1     0.00035473      -938.1643709288 -1.15E-03
     7 OT DIIS     0.80E-01    6.1     0.00023989      -938.1647402059 -3.69E-04
     8 OT DIIS     0.80E-01    6.1     0.00018962      -938.1648649957 -1.25E-04
     9 OT DIIS     0.80E-01    6.1     0.00012745      -938.1649394149 -7.44E-05
    10 OT DIIS     0.80E-01    6.1     0.00010068      -938.1649979412 -5.85E-05
    11 OT DIIS     0.80E-01    6.1     0.00007863      -938.1650306360 -3.27E-05
    12 OT DIIS     0.80E-01    6.1     0.00006229      -938.1650525837 -2.19E-05
    13 OT DIIS     0.80E-01    6.1     0.00004890      -938.1650639441 -1.14E-05
    14 OT DIIS     0.80E-01    6.1     0.00003435      -938.1650721893 -8.25E-06
    15 OT DIIS     0.80E-01    6.1     0.00002844      -938.1650781047 -5.92E-06
    16 OT DIIS     0.80E-01    6.1     0.00002687      -938.1650817624 -3.66E-06
    17 OT DIIS     0.80E-01    6.1     0.00002168      -938.1650842156 -2.45E-06
    18 OT DIIS     0.80E-01    6.1     0.00001750      -938.1650863032 -2.09E-06
    19 OT DIIS     0.80E-01    6.1     0.00001584      -938.1650875926 -1.29E-06
    20 OT DIIS     0.80E-01    6.1     0.00001293      -938.1650889238 -1.33E-06
    21 OT DIIS     0.80E-01    6.1     0.00001256      -938.1650897718 -8.48E-07
    22 OT DIIS     0.80E-01    6.1     0.00000984      -938.1650906445 -8.73E-07

  *** SCF run converged in    22 steps ***


  Electronic density on regular grids:       -424.0000001044       -0.0000001044
  Core density on regular grids:              423.9999999739       -0.0000000261
  Total charge density on r-space grids:       -0.0000001305
  Total charge density g-space grids:          -0.0000001305

  Overlap energy of the core charge distribution:               0.00000043179780
  Self energy of the core charge distribution:              -2435.54055198066590
  Core Hamiltonian energy:                                    714.86974267800224
  Hartree energy:                                            1006.89214185403102
  Exchange-correlation energy:                               -224.38642362765449

  Total energy:                                              -938.16509064448951

 ENERGY| Total FORCE_EVAL ( QS ) energy [hartree]           -938.165091324190826

 OPT| **************************************************************************
 OPT| Step number                                                              4
 OPT| Optimization method                                                  LBFGS
 OPT| Total energy [hartree]                                     -938.1650913242
 OPT| Effective energy change [hartree]                            -0.1155217867
 OPT| Decrease in energy                                                     YES
 OPT| Used time [s]                                                      142.489
 OPT|
 OPT| Maximum step size                                             0.2906914334
 OPT| Convergence limit for maximum step size                       0.0030000000
 OPT| Maximum step size is converged                                          NO
 OPT|
 OPT| RMS step size                                                 0.0838319895
 OPT| Convergence limit for RMS step size                           0.0015000000
 OPT| RMS step size is converged                                              NO
 OPT|
 OPT| Maximum gradient                                              0.1796648239
 OPT| Convergence limit for maximum gradient                        0.0010000000
 OPT| Maximum gradient is converged                                           NO
 OPT|
 OPT| RMS gradient                                                  0.0217614257
 OPT| Convergence limit for RMS gradient                            0.0003000000
 OPT| RMS gradient is converged                                               NO
 OPT| **************************************************************************
 OPT| Estimated peak process memory after this step [MiB]                   1752

 --------------------------
 OPTIMIZATION STEP:      5
 --------------------------

 Number of electrons:                                                        424
 Number of occupied orbitals:                                                212
 Number of molecular orbitals:                                               212

 Number of orbital functions:                                                326
 Number of independent orbital functions:                                    326

 Extrapolation method: ASPC


 SCF WAVEFUNCTION OPTIMIZATION

  ----------------------------------- OT ---------------------------------------
  Minimizer      : DIIS                : direct inversion
                                         in the iterative subspace
                                         using   7 DIIS vectors
                                         safer DIIS on
  Preconditioner : FULL_SINGLE_INVERSE : inversion of 
                                         H + eS - 2*(Sc)(c^T*H*c+const)(Sc)^T
  Precond_solver : DEFAULT
  stepsize       :    0.08000000                  energy_gap     :    0.08000000
  eps_taylor     :   0.10000E-15                  max_taylor     :             4
  ----------------------------------- OT ---------------------------------------

  Step     Update method      Time    Convergence         Total energy    Change
  ------------------------------------------------------------------------------
     1 OT DIIS     0.80E-01    4.9     0.00392889      -938.2146690728 -9.38E+02
     2 OT DIIS     0.80E-01    6.1     0.00408636      -938.2354821477 -2.08E-02
     3 OT DIIS     0.80E-01    6.1     0.00230861      -938.2515165306 -1.60E-02
     4 OT DIIS     0.80E-01    6.1     0.00135867      -938.2563620900 -4.85E-03
     5 OT DIIS     0.80E-01    6.1     0.00066047      -938.2594428029 -3.08E-03
     6 OT DIIS     0.80E-01    6.1     0.00035343      -938.2602472928 -8.04E-04
     7 OT DIIS     0.80E-01    6.1     0.00022699      -938.2604755808 -2.28E-04
     8 OT DIIS     0.80E-01    6.1     0.00011411      -938.2605665815 -9.10E-05
     9 OT DIIS     0.80E-01    6.1     0.00007630      -938.2606019513 -3.54E-05
    10 OT DIIS     0.80E-01    6.1     0.00006286      -938.2606207341 -1.88E-05
    11 OT DIIS     0.80E-01    6.1     0.00005002      -938.2606298347 -9.10E-06
    12 OT DIIS     0.80E-01    6.1     0.00004485      -938.2606359779 -6.14E-06
    13 OT DIIS     0.80E-01    6.1     0.00002776      -938.2606395927 -3.61E-06
    14 OT DIIS     0.80E-01    6.1     0.00002129      -938.2606424541 -2.86E-06
    15 OT DIIS     0.80E-01    6.1     0.00001724      -938.2606441682 -1.71E-06
    16 OT DIIS     0.80E-01    6.1     0.00001301      -938.2606453545 -1.19E-06
    17 OT DIIS     0.80E-01    6.1     0.00000972      -938.2606460398 -6.85E-07

  *** SCF run converged in    17 steps ***


  Electronic density on regular grids:       -423.9999989385        0.0000010615
  Core density on regular grids:              423.9999999738       -0.0000000262
  Total charge density on r-space grids:        0.0000010353
  Total charge density g-space grids:           0.0000010353

  Overlap energy of the core charge distribution:               0.00000007872912
  Self energy of the core charge distribution:              -2435.54055198066590
  Core Hamiltonian energy:                                    711.70527965271458
  Hartree energy:                                            1009.18207188582664
  Exchange-correlation energy:                               -223.60744567636880

  Total energy:                                              -938.26064603976442

 ENERGY| Total FORCE_EVAL ( QS ) energy [hartree]           -938.260646428797031

 OPT| **************************************************************************
 OPT| Step number                                                              5
 OPT| Optimization method                                                  LBFGS
 OPT| Total energy [hartree]                                     -938.2606464288
 OPT| Effective energy change [hartree]                            -0.0955551046
 OPT| Decrease in energy                                                     YES
 OPT| Used time [s]                                                      111.696
 OPT|
 OPT| Maximum step size                                             0.2255510784
 OPT| Convergence limit for maximum step size                       0.0030000000
 OPT| Maximum step size is converged                                          NO
 OPT|
 OPT| RMS step size                                                 0.0628123564
 OPT| Convergence limit for RMS step size                           0.0015000000
 OPT| RMS step size is converged                                              NO
 OPT|
 OPT| Maximum gradient                                              0.0433416536
 OPT| Convergence limit for maximum gradient                        0.0010000000
 OPT| Maximum gradient is converged                                           NO
 OPT|
 OPT| RMS gradient                                                  0.0121568316
 OPT| Convergence limit for RMS gradient                            0.0003000000
 OPT| RMS gradient is converged                                               NO
 OPT| **************************************************************************
 OPT| Estimated peak process memory after this step [MiB]                   1752

 --------------------------
 OPTIMIZATION STEP:      6
 --------------------------

 Number of electrons:                                                        424
 Number of occupied orbitals:                                                212
 Number of molecular orbitals:                                               212

 Number of orbital functions:                                                326
 Number of independent orbital functions:                                    326

 Extrapolation method: ASPC


 SCF WAVEFUNCTION OPTIMIZATION

  ----------------------------------- OT ---------------------------------------
  Minimizer      : DIIS                : direct inversion
                                         in the iterative subspace
                                         using   7 DIIS vectors
                                         safer DIIS on
  Preconditioner : FULL_SINGLE_INVERSE : inversion of 
                                         H + eS - 2*(Sc)(c^T*H*c+const)(Sc)^T
  Precond_solver : DEFAULT
  stepsize       :    0.08000000                  energy_gap     :    0.08000000
  eps_taylor     :   0.10000E-15                  max_taylor     :             4
  ----------------------------------- OT ---------------------------------------

  Step     Update method      Time    Convergence         Total energy    Change
  ------------------------------------------------------------------------------
     1 OT DIIS     0.80E-01    4.9     0.00256174      -938.2995955499 -9.38E+02
     2 OT DIIS     0.80E-01    6.1     0.00252855      -938.3120653181 -1.25E-02
     3 OT DIIS     0.80E-01    6.1     0.00158728      -938.3174469373 -5.38E-03
     4 OT DIIS     0.80E-01    6.1     0.00108304      -938.3197473580 -2.30E-03
     5 OT DIIS     0.80E-01    6.1     0.00042765      -938.3210811789 -1.33E-03
     6 OT DIIS     0.80E-01    6.1     0.00029843      -938.3214545325 -3.73E-04
     7 OT DIIS     0.80E-01    6.1     0.00014926      -938.3216034445 -1.49E-04
     8 OT DIIS     0.80E-01    6.1     0.00007378      -938.3216628671 -5.94E-05
     9 OT DIIS     0.80E-01    6.1     0.00006536      -938.3216822609 -1.94E-05
    10 OT DIIS     0.80E-01    6.1     0.00004616      -938.3216931697 -1.09E-05
    11 OT DIIS     0.80E-01    6.1     0.00003984      -938.3217011495 -7.98E-06
    12 OT DIIS     0.80E-01    6.1     0.00003506      -938.3217059320 -4.78E-06
    13 OT DIIS     0.80E-01    6.1     0.00002852      -938.3217090084 -3.08E-06
    14 OT DIIS     0.80E-01    6.1     0.00002175      -938.3217121320 -3.12E-06
    15 OT DIIS     0.80E-01    6.1     0.00001975      -938.3217146359 -2.50E-06
    16 OT DIIS     0.80E-01    6.1     0.00001561      -938.3217168990 -2.26E-06
    17 OT DIIS     0.80E-01    6.1     0.00001388      -938.3217194125 -2.51E-06
    18 OT DIIS     0.80E-01    6.1     0.00001304      -938.3217206300 -1.22E-06
    19 OT DIIS     0.80E-01    6.1     0.00001124      -938.3217218592 -1.23E-06
    20 OT DIIS     0.80E-01    6.1     0.00001034      -938.3217227913 -9.32E-07
    21 OT DIIS     0.80E-01    6.1     0.00001021      -938.3217233429 -5.52E-07
    22 OT DIIS     0.80E-01    6.1     0.00000795      -938.3217239252 -5.82E-07

  *** SCF run converged in    22 steps ***


  Electronic density on regular grids:       -423.9999998134        0.0000001866
  Core density on regular grids:              423.9999999740       -0.0000000260
  Total charge density on r-space grids:        0.0000001606
  Total charge density g-space grids:           0.0000001606

  Overlap energy of the core charge distribution:               0.00000007088724
  Self energy of the core charge distribution:              -2435.54055198066590
  Core Hamiltonian energy:                                    710.81907578242397
  Hartree energy:                                            1009.79878197951723
  Exchange-correlation energy:                               -223.39902977739447

  Total energy:                                              -938.32172392523171

 ENERGY| Total FORCE_EVAL ( QS ) energy [hartree]           -938.321724397406911

 OPT| **************************************************************************
 OPT| Step number                                                              6
 OPT| Optimization method                                                  LBFGS
 OPT| Total energy [hartree]                                     -938.3217243974
 OPT| Effective energy change [hartree]                            -0.0610779686
 OPT| Decrease in energy                                                     YES
 OPT| Used time [s]                                                      142.121
 OPT|
 OPT| Maximum step size                                             0.1346828139
 OPT| Convergence limit for maximum step size                       0.0030000000
 OPT| Maximum step size is converged                                          NO
 OPT|
 OPT| RMS step size                                                 0.0343169785
 OPT| Convergence limit for RMS step size                           0.0015000000
 OPT| RMS step size is converged                                              NO
 OPT|
 OPT| Maximum gradient                                              0.0416760792
 OPT| Convergence limit for maximum gradient                        0.0010000000
 OPT| Maximum gradient is converged                                           NO
 OPT|
 OPT| RMS gradient                                                  0.0096763103
 OPT| Convergence limit for RMS gradient                            0.0003000000
 OPT| RMS gradient is converged                                               NO
 OPT| **************************************************************************
 OPT| Estimated peak process memory after this step [MiB]                   1756

 --------------------------
 OPTIMIZATION STEP:      7
 --------------------------

 Number of electrons:                                                        424
 Number of occupied orbitals:                                                212
 Number of molecular orbitals:                                               212

 Number of orbital functions:                                                326
 Number of independent orbital functions:                                    326

 Extrapolation method: ASPC


 SCF WAVEFUNCTION OPTIMIZATION

  ----------------------------------- OT ---------------------------------------
  Minimizer      : DIIS                : direct inversion
                                         in the iterative subspace
                                         using   7 DIIS vectors
                                         safer DIIS on
  Preconditioner : FULL_SINGLE_INVERSE : inversion of 
                                         H + eS - 2*(Sc)(c^T*H*c+const)(Sc)^T
  Precond_solver : DEFAULT
  stepsize       :    0.08000000                  energy_gap     :    0.08000000
  eps_taylor     :   0.10000E-15                  max_taylor     :             4
  ----------------------------------- OT ---------------------------------------

  Step     Update method      Time    Convergence         Total energy    Change
  ------------------------------------------------------------------------------
     1 OT DIIS     0.80E-01    4.9     0.00311335      -938.3628890128 -9.38E+02
     2 OT DIIS     0.80E-01    6.1     0.00270784      -938.3856334649 -2.27E-02
     3 OT DIIS     0.80E-01    6.1     0.00166475      -938.3945741594 -8.94E-03
     4 OT DIIS     0.80E-01    6.1     0.00129936      -938.3993022428 -4.73E-03
     5 OT DIIS     0.80E-01    6.1     0.00067149      -938.4021643295 -2.86E-03
     6 OT DIIS     0.80E-01    6.1     0.00044151      -938.4034093952 -1.25E-03
     7 OT DIIS     0.80E-01    6.1     0.00036068      -938.4040500790 -6.41E-04
     8 OT DIIS     0.80E-01    6.1     0.00026785      -938.4045100465 -4.60E-04
     9 OT DIIS     0.80E-01    6.1     0.00020203      -938.4047790397 -2.69E-04
    10 OT DIIS     0.80E-01    6.1     0.00013073      -938.4049560766 -1.77E-04
    11 OT DIIS     0.80E-01    6.1     0.00010680      -938.4050276536 -7.16E-05
    12 OT DIIS     0.80E-01    6.1     0.00008186      -938.4050611930 -3.35E-05
    13 OT DIIS     0.80E-01    6.1     0.00006904      -938.4050729371 -1.17E-05
    14 OT DIIS     0.80E-01    6.1     0.00003830      -938.4050813893 -8.45E-06
    15 OT DIIS     0.80E-01    6.1     0.00003072      -938.4050851310 -3.74E-06
    16 OT DIIS     0.80E-01    6.1     0.00002418      -938.4050872249 -2.09E-06
    17 OT DIIS     0.80E-01    6.1     0.00001865      -938.4050884520 -1.23E-06
    18 OT DIIS     0.80E-01    6.1     0.00001407      -938.4050894740 -1.02E-06
    19 OT DIIS     0.80E-01    6.1     0.00001250      -938.4050901098 -6.36E-07
    20 OT DIIS     0.80E-01    6.1     0.00001061      -938.4050906743 -5.64E-07
    21 OT DIIS     0.80E-01    6.1     0.00001010      -938.4050911366 -4.62E-07
    22 OT DIIS     0.80E-01    6.1     0.00000842      -938.4050914028 -2.66E-07

  *** SCF run converged in    22 steps ***


  Electronic density on regular grids:       -423.9999984655        0.0000015345
  Core density on regular grids:              423.9999999742       -0.0000000258
  Total charge density on r-space grids:        0.0000015087
  Total charge density g-space grids:           0.0000015087

  Overlap energy of the core charge distribution:               0.00000006989429
  Self energy of the core charge distribution:              -2435.54055198066590
  Core Hamiltonian energy:                                    710.12258929024040
  Hartree energy:                                            1010.26848176728572
  Exchange-correlation energy:                               -223.25561054954957

  Total energy:                                              -938.40509140279528

 ENERGY| Total FORCE_EVAL ( QS ) energy [hartree]           -938.405091748380755

 OPT| **************************************************************************
 OPT| Step number                                                              7
 OPT| Optimization method                                                  LBFGS
 OPT| Total energy [hartree]                                     -938.4050917484
 OPT| Effective energy change [hartree]                            -0.0833673510
 OPT| Decrease in energy                                                     YES
 OPT| Used time [s]                                                      142.115
 OPT|
 OPT| Maximum step size                                             0.2502940626
 OPT| Convergence limit for maximum step size                       0.0030000000
 OPT| Maximum step size is converged                                          NO
 OPT|
 OPT| RMS step size                                                 0.0684402796
 OPT| Convergence limit for RMS step size                           0.0015000000
 OPT| RMS step size is converged                                              NO
 OPT|
 OPT| Maximum gradient                                              0.0939180975
 OPT| Convergence limit for maximum gradient                        0.0010000000
 OPT| Maximum gradient is converged                                           NO
 OPT|
 OPT| RMS gradient                                                  0.0118200440
 OPT| Convergence limit for RMS gradient                            0.0003000000
 OPT| RMS gradient is converged                                               NO
 OPT| **************************************************************************
 OPT| Estimated peak process memory after this step [MiB]                   1763

 --------------------------
 OPTIMIZATION STEP:      8
 --------------------------

 Number of electrons:                                                        424
 Number of occupied orbitals:                                                212
 Number of molecular orbitals:                                               212

 Number of orbital functions:                                                326
 Number of independent orbital functions:                                    326

 Extrapolation method: ASPC


 SCF WAVEFUNCTION OPTIMIZATION

  ----------------------------------- OT ---------------------------------------
  Minimizer      : DIIS                : direct inversion
                                         in the iterative subspace
                                         using   7 DIIS vectors
                                         safer DIIS on
  Preconditioner : FULL_SINGLE_INVERSE : inversion of 
                                         H + eS - 2*(Sc)(c^T*H*c+const)(Sc)^T
  Precond_solver : DEFAULT
  stepsize       :    0.08000000                  energy_gap     :    0.08000000
  eps_taylor     :   0.10000E-15                  max_taylor     :             4
  ----------------------------------- OT ---------------------------------------

  Step     Update method      Time    Convergence         Total energy    Change
  ------------------------------------------------------------------------------
     1 OT DIIS     0.80E-01    4.9     0.00972386      -938.2250527189 -9.38E+02
     2 OT DIIS     0.80E-01    6.1     0.00922883      -938.2504552079 -2.54E-02
     3 OT DIIS     0.80E-01    6.1     0.00394749      -938.3652112379 -1.15E-01
     4 OT DIIS     0.80E-01    6.1     0.00227829      -938.3881515731 -2.29E-02
     5 OT DIIS     0.80E-01    6.1     0.00131566      -938.3977403976 -9.59E-03
     6 OT DIIS     0.80E-01    6.1     0.00100137      -938.4031248085 -5.38E-03
     7 OT DIIS     0.80E-01    6.1     0.00070421      -938.4062352545 -3.11E-03
     8 OT DIIS     0.80E-01    6.1     0.00041826      -938.4081690085 -1.93E-03
     9 OT DIIS     0.80E-01    6.1     0.00032370      -938.4091584869 -9.89E-04
    10 OT DIIS     0.80E-01    6.1     0.00025721      -938.4096328712 -4.74E-04
    11 OT DIIS     0.80E-01    6.1     0.00019634      -938.4100823257 -4.49E-04
    12 OT DIIS     0.80E-01    6.1     0.00017544      -938.4102767539 -1.94E-04
    13 OT DIIS     0.80E-01    6.1     0.00014070      -938.4103370019 -6.02E-05
    14 OT DIIS     0.80E-01    6.1     0.00008204      -938.4104082436 -7.12E-05
    15 OT DIIS     0.80E-01    6.1     0.00006566      -938.4104298493 -2.16E-05
    16 OT DIIS     0.80E-01    6.1     0.00005213      -938.4104466192 -1.68E-05
    17 OT DIIS     0.80E-01    6.1     0.00003963      -938.4104589856 -1.24E-05
    18 OT DIIS     0.80E-01    6.1     0.00003420      -938.4104655257 -6.54E-06
    19 OT DIIS     0.80E-01    6.1     0.00002766      -938.4104721550 -6.63E-06
    20 OT DIIS     0.80E-01    6.1     0.00002471      -938.4104759441 -3.79E-06
    21 OT DIIS     0.80E-01    6.1     0.00002464      -938.4104791009 -3.16E-06
    22 OT DIIS     0.80E-01    6.1     0.00001838      -938.4104816790 -2.58E-06
    23 OT DIIS     0.80E-01    6.1     0.00001626      -938.4104837541 -2.08E-06
    24 OT DIIS     0.80E-01    6.1     0.00001312      -938.4104852174 -1.46E-06
    25 OT DIIS     0.80E-01    6.1     0.00001054      -938.4104859771 -7.60E-07
    26 OT DIIS     0.80E-01    6.1     0.00000930      -938.4104865332 -5.56E-07

  *** SCF run converged in    26 steps ***


  Electronic density on regular grids:       -423.9999991029        0.0000008971
  Core density on regular grids:              423.9999999737       -0.0000000263
  Total charge density on r-space grids:        0.0000008709
  Total charge density g-space grids:           0.0000008709

  Overlap energy of the core charge distribution:               0.00000047734178
  Self energy of the core charge distribution:              -2435.54055198066590
  Core Hamiltonian energy:                                    709.08169572155600
  Hartree energy:                                            1011.08220382587297
  Exchange-correlation energy:                               -223.03383457732454

  Total energy:                                              -938.41048653321945

 ENERGY| Total FORCE_EVAL ( QS ) energy [hartree]           -938.410486953304257

 Number of electrons:                                                        424
 Number of occupied orbitals:                                                212
 Number of molecular orbitals:                                               212

 Number of orbital functions:                                                326
 Number of independent orbital functions:                                    326

 Extrapolation method: ASPC


 SCF WAVEFUNCTION OPTIMIZATION

  ----------------------------------- OT ---------------------------------------
  Minimizer      : DIIS                : direct inversion
                                         in the iterative subspace
                                         using   7 DIIS vectors
                                         safer DIIS on
  Preconditioner : FULL_SINGLE_INVERSE : inversion of 
                                         H + eS - 2*(Sc)(c^T*H*c+const)(Sc)^T
  Precond_solver : DEFAULT
  stepsize       :    0.08000000                  energy_gap     :    0.08000000
  eps_taylor     :   0.10000E-15                  max_taylor     :             4
  ----------------------------------- OT ---------------------------------------

  Step     Update method      Time    Convergence         Total energy    Change
  ------------------------------------------------------------------------------
     1 OT DIIS     0.80E-01    4.9     0.00712820      -938.2681931366 -9.38E+02
     2 OT DIIS     0.80E-01    6.1     0.00736822      -938.3347810579 -6.66E-02
     3 OT DIIS     0.80E-01    6.1     0.00369536      -938.3925310717 -5.78E-02
     4 OT DIIS     0.80E-01    6.1     0.00274319      -938.4073167119 -1.48E-02
     5 OT DIIS     0.80E-01    6.1     0.00162839      -938.4190923454 -1.18E-02
     6 OT DIIS     0.80E-01    6.1     0.00127763      -938.4247720914 -5.68E-03
     7 OT DIIS     0.80E-01    6.1     0.00071271      -938.4287292453 -3.96E-03
     8 OT DIIS     0.80E-01    6.1     0.00047312      -938.4305440836 -1.81E-03
     9 OT DIIS     0.80E-01    6.1     0.00041552      -938.4314269556 -8.83E-04
    10 OT DIIS     0.80E-01    6.1     0.00033550      -938.4320669047 -6.40E-04
    11 OT DIIS     0.80E-01    6.1     0.00027517      -938.4323410126 -2.74E-04
    12 OT DIIS     0.80E-01    6.1     0.00025185      -938.4325397510 -1.99E-04
    13 OT DIIS     0.80E-01    6.1     0.00017774      -938.4326399344 -1.00E-04
    14 OT DIIS     0.80E-01    6.1     0.00013313      -938.4327460002 -1.06E-04
    15 OT DIIS     0.80E-01    6.1     0.00010406      -938.4328170753 -7.11E-05
    16 OT DIIS     0.80E-01    6.1     0.00008416      -938.4328734772 -5.64E-05
    17 OT DIIS     0.80E-01    6.1     0.00007109      -938.4329017485 -2.83E-05
    18 OT DIIS     0.80E-01    6.1     0.00006169      -938.4329265070 -2.48E-05
    19 OT DIIS     0.80E-01    6.1     0.00006114      -938.4329445106 -1.80E-05
    20 OT DIIS     0.80E-01    6.1     0.00005289      -938.4329608989 -1.64E-05
    21 OT DIIS     0.80E-01    6.1     0.00005208      -938.4329698596 -8.96E-06
    22 OT DIIS     0.80E-01    6.1     0.00004357      -938.4329843473 -1.45E-05
    23 OT DIIS     0.80E-01    6.1     0.00003916      -938.4329966551 -1.23E-05
    24 OT DIIS     0.80E-01    6.1     0.00003400      -938.4330089159 -1.23E-05
    25 OT DIIS     0.80E-01    6.1     0.00003275      -938.4330211662 -1.23E-05
    26 OT DIIS     0.80E-01    6.1     0.00002997      -938.4330329789 -1.18E-05
    27 OT DIIS     0.80E-01    6.1     0.00002974      -938.4330432319 -1.03E-05
    28 OT DIIS     0.80E-01    6.1     0.00002624      -938.4330506421 -7.41E-06
    29 OT DIIS     0.80E-01    6.1     0.00002672      -938.4330559394 -5.30E-06
    30 OT DIIS     0.80E-01    6.1     0.00002082      -938.4330614480 -5.51E-06
    31 OT DIIS     0.80E-01    6.1     0.00001962      -938.4330652820 -3.83E-06
    32 OT DIIS     0.80E-01    6.1     0.00001655      -938.4330683702 -3.09E-06
    33 OT DIIS     0.80E-01    6.1     0.00001420      -938.4330707228 -2.35E-06
    34 OT DIIS     0.80E-01    6.1     0.00001285      -938.4330723056 -1.58E-06
    35 OT DIIS     0.80E-01    6.1     0.00001272      -938.4330736606 -1.35E-06
    36 OT DIIS     0.80E-01    6.1     0.00001105      -938.4330744085 -7.48E-07
    37 OT DIIS     0.80E-01    6.1     0.00001101      -938.4330749901 -5.82E-07
    38 OT DIIS     0.80E-01    6.1     0.00000908      -938.4330753944 -4.04E-07

  *** SCF run converged in    38 steps ***


  Electronic density on regular grids:       -423.9999985635        0.0000014365
  Core density on regular grids:              423.9999999739       -0.0000000261
  Total charge density on r-space grids:        0.0000014104
  Total charge density g-space grids:           0.0000014104

  Overlap energy of the core charge distribution:               0.00000007442241
  Self energy of the core charge distribution:              -2435.54055198066590
  Core Hamiltonian energy:                                    709.62230021076641
  Hartree energy:                                            1010.63844835662599
  Exchange-correlation energy:                               -223.15327205555309

  Total energy:                                              -938.43307539440411

 ENERGY| Total FORCE_EVAL ( QS ) energy [hartree]           -938.433075673653093

 OPT| **************************************************************************
 OPT| Step number                                                              8
 OPT| Optimization method                                                  LBFGS
 OPT| Total energy [hartree]                                     -938.4330756737
 OPT| Effective energy change [hartree]                            -0.0279839253
 OPT| Decrease in energy                                                     YES
 OPT| Used time [s]                                                      406.062
 OPT|
 OPT| Maximum step size                                             0.0910147595
 OPT| Convergence limit for maximum step size                       0.0030000000
 OPT| Maximum step size is converged                                          NO
 OPT|
 OPT| RMS step size                                                 0.0266689976
 OPT| Convergence limit for RMS step size                           0.0015000000
 OPT| RMS step size is converged                                              NO
 OPT|
 OPT| Maximum gradient                                              0.0531914564
 OPT| Convergence limit for maximum gradient                        0.0010000000
 OPT| Maximum gradient is converged                                           NO
 OPT|
 OPT| RMS gradient                                                  0.0099109147
 OPT| Convergence limit for RMS gradient                            0.0003000000
 OPT| RMS gradient is converged                                               NO
 OPT| **************************************************************************
 OPT| Estimated peak process memory after this step [MiB]                   1771

 --------------------------
 OPTIMIZATION STEP:      9
 --------------------------

 Number of electrons:                                                        424
 Number of occupied orbitals:                                                212
 Number of molecular orbitals:                                               212

 Number of orbital functions:                                                326
 Number of independent orbital functions:                                    326

 Extrapolation method: ASPC


 SCF WAVEFUNCTION OPTIMIZATION

  ----------------------------------- OT ---------------------------------------
  Minimizer      : DIIS                : direct inversion
                                         in the iterative subspace
                                         using   7 DIIS vectors
                                         safer DIIS on
  Preconditioner : FULL_SINGLE_INVERSE : inversion of 
                                         H + eS - 2*(Sc)(c^T*H*c+const)(Sc)^T
  Precond_solver : DEFAULT
  stepsize       :    0.08000000                  energy_gap     :    0.08000000
  eps_taylor     :   0.10000E-15                  max_taylor     :             4
  ----------------------------------- OT ---------------------------------------

  Step     Update method      Time    Convergence         Total energy    Change
  ------------------------------------------------------------------------------
     1 OT DIIS     0.80E-01    4.9     0.00936092      -938.1719171884 -9.38E+02
     2 OT DIIS     0.80E-01    6.1     0.00750464      -938.3387105968 -1.67E-01
     3 OT DIIS     0.80E-01    6.1     0.00367522      -938.4220092892 -8.33E-02
     4 OT DIIS     0.80E-01    6.1     0.00291106      -938.4454821209 -2.35E-02
     5 OT DIIS     0.80E-01    6.1     0.00160238      -938.4591532710 -1.37E-02
     6 OT DIIS     0.80E-01    6.1     0.00083400      -938.4638838474 -4.73E-03
     7 OT DIIS     0.80E-01    6.1     0.00059076      -938.4656703148 -1.79E-03
     8 OT DIIS     0.80E-01    6.1     0.00043216      -938.4668426968 -1.17E-03
     9 OT DIIS     0.80E-01    6.1     0.00035639      -938.4675997213 -7.57E-04
    10 OT DIIS     0.80E-01    6.1     0.00026470      -938.4685680259 -9.68E-04
    11 OT DIIS     0.80E-01    6.1     0.00022733      -938.4690864467 -5.18E-04
    12 OT DIIS     0.80E-01    6.1     0.00017390      -938.4695012690 -4.15E-04
    13 OT DIIS     0.80E-01    6.1     0.00015113      -938.4696559910 -1.55E-04
    14 OT DIIS     0.80E-01    6.1     0.00012102      -938.4697490938 -9.31E-05
    15 OT DIIS     0.80E-01    6.1     0.00008488      -938.4698006328 -5.15E-05
    16 OT DIIS     0.80E-01    6.1     0.00006875      -938.4698236859 -2.31E-05
    17 OT DIIS     0.80E-01    6.1     0.00005054      -938.4698386721 -1.50E-05
    18 OT DIIS     0.80E-01    6.1     0.00003808      -938.4698497801 -1.11E-05
    19 OT DIIS     0.80E-01    6.1     0.00003230      -938.4698560865 -6.31E-06
    20 OT DIIS     0.80E-01    6.1     0.00002821      -938.4698611371 -5.05E-06
    21 OT DIIS     0.80E-01    6.1     0.00002546      -938.4698649682 -3.83E-06
    22 OT DIIS     0.80E-01    6.1     0.00002360      -938.4698678842 -2.92E-06
    23 OT DIIS     0.80E-01    6.1     0.00002112      -938.4698707723 -2.89E-06
    24 OT DIIS     0.80E-01    6.1     0.00001941      -938.4698731823 -2.41E-06
    25 OT DIIS     0.80E-01    6.1     0.00001786      -938.4698755100 -2.33E-06
    26 OT DIIS     0.80E-01    6.1     0.00001567      -938.4698777627 -2.25E-06
    27 OT DIIS     0.80E-01    6.1     0.00001436      -938.4698801351 -2.37E-06
    28 OT DIIS     0.80E-01    6.1     0.00001318      -938.4698820235 -1.89E-06
    29 OT DIIS     0.80E-01    6.1     0.00001226      -938.4698840233 -2.00E-06
    30 OT DIIS     0.80E-01    6.1     0.00001158      -938.4698857205 -1.70E-06
    31 OT DIIS     0.80E-01    6.1     0.00001068      -938.4698872563 -1.54E-06
    32 OT DIIS     0.80E-01    6.1     0.00000967      -938.4698886047 -1.35E-06

  *** SCF run converged in    32 steps ***


  Electronic density on regular grids:       -423.9999984657        0.0000015343
  Core density on regular grids:              423.9999999738       -0.0000000262
  Total charge density on r-space grids:        0.0000015080
  Total charge density g-space grids:           0.0000015080

  Overlap energy of the core charge distribution:               0.00000007463383
  Self energy of the core charge distribution:              -2435.54055198066590
  Core Hamiltonian energy:                                    709.40335842860179
  Hartree energy:                                            1010.79405159479040
  Exchange-correlation energy:                               -223.12674672209715

  Total energy:                                              -938.46988860473698

 ENERGY| Total FORCE_EVAL ( QS ) energy [hartree]           -938.469889650578466

 OPT| **************************************************************************
 OPT| Step number                                                              9
 OPT| Optimization method                                                  LBFGS
 OPT| Total energy [hartree]                                     -938.4698896506
 OPT| Effective energy change [hartree]                            -0.0368139769
 OPT| Decrease in energy                                                     YES
 OPT| Used time [s]                                                      202.942
 OPT|
 OPT| Maximum step size                                             0.0870064180
 OPT| Convergence limit for maximum step size                       0.0030000000
 OPT| Maximum step size is converged                                          NO
 OPT|
 OPT| RMS step size                                                 0.0239044318
 OPT| Convergence limit for RMS step size                           0.0015000000
 OPT| RMS step size is converged                                              NO
 OPT|
 OPT| Maximum gradient                                              0.0260492348
 OPT| Convergence limit for maximum gradient                        0.0010000000
 OPT| Maximum gradient is converged                                           NO
 OPT|
 OPT| RMS gradient                                                  0.0066933424
 OPT| Convergence limit for RMS gradient                            0.0003000000
 OPT| RMS gradient is converged                                               NO
 OPT| **************************************************************************
 OPT| Estimated peak process memory after this step [MiB]                   1771

 --------------------------
 OPTIMIZATION STEP:     10
 --------------------------

 Number of electrons:                                                        424
 Number of occupied orbitals:                                                212
 Number of molecular orbitals:                                               212

 Number of orbital functions:                                                326
 Number of independent orbital functions:                                    326

 Extrapolation method: ASPC


 SCF WAVEFUNCTION OPTIMIZATION

  ----------------------------------- OT ---------------------------------------
  Minimizer      : DIIS                : direct inversion
                                         in the iterative subspace
                                         using   7 DIIS vectors
                                         safer DIIS on
  Preconditioner : FULL_SINGLE_INVERSE : inversion of 
                                         H + eS - 2*(Sc)(c^T*H*c+const)(Sc)^T
  Precond_solver : DEFAULT
  stepsize       :    0.08000000                  energy_gap     :    0.08000000
  eps_taylor     :   0.10000E-15                  max_taylor     :             4
  ----------------------------------- OT ---------------------------------------

  Step     Update method      Time    Convergence         Total energy    Change
  ------------------------------------------------------------------------------
     1 OT DIIS     0.80E-01    4.9     0.00484536      -938.4132898205 -9.38E+02
     2 OT DIIS     0.80E-01    6.1     0.00460296      -938.4551010653 -4.18E-02
     3 OT DIIS     0.80E-01    6.1     0.00243283      -938.4793475299 -2.42E-02
     4 OT DIIS     0.80E-01    6.1     0.00190911      -938.4869868587 -7.64E-03
     5 OT DIIS     0.80E-01    6.1     0.00087652      -938.4926004140 -5.61E-03
     6 OT DIIS     0.80E-01    6.1     0.00059573      -938.4942658270 -1.67E-03
     7 OT DIIS     0.80E-01    6.1     0.00040475      -938.4949292954 -6.63E-04
     8 OT DIIS     0.80E-01    6.1     0.00025956      -938.4953166164 -3.87E-04
     9 OT DIIS     0.80E-01    6.1     0.00019009      -938.4955238826 -2.07E-04
    10 OT DIIS     0.80E-01    6.1     0.00014693      -938.4956856883 -1.62E-04
    11 OT DIIS     0.80E-01    6.1     0.00011998      -938.4957565756 -7.09E-05
    12 OT DIIS     0.80E-01    6.1     0.00009797      -938.4958084209 -5.18E-05
    13 OT DIIS     0.80E-01    6.1     0.00007630      -938.4958308375 -2.24E-05
    14 OT DIIS     0.80E-01    6.1     0.00005401      -938.4958490055 -1.82E-05
    15 OT DIIS     0.80E-01    6.1     0.00004585      -938.4958589234 -9.92E-06
    16 OT DIIS     0.80E-01    6.1     0.00003649      -938.4958652725 -6.35E-06
    17 OT DIIS     0.80E-01    6.1     0.00002745      -938.4958693863 -4.11E-06
    18 OT DIIS     0.80E-01    6.1     0.00002242      -938.4958722141 -2.83E-06
    19 OT DIIS     0.80E-01    6.1     0.00001992      -938.4958741717 -1.96E-06
    20 OT DIIS     0.80E-01    6.1     0.00001755      -938.4958759358 -1.76E-06
    21 OT DIIS     0.80E-01    6.1     0.00001646      -938.4958772273 -1.29E-06
    22 OT DIIS     0.80E-01    6.1     0.00001440      -938.4958784968 -1.27E-06
    23 OT DIIS     0.80E-01    6.1     0.00001302      -938.4958797457 -1.25E-06
    24 OT DIIS     0.80E-01    6.1     0.00001204      -938.4958808149 -1.07E-06
    25 OT DIIS     0.80E-01    6.1     0.00001087      -938.4958819426 -1.13E-06
    26 OT DIIS     0.80E-01    6.1     0.00001016      -938.4958831068 -1.16E-06
    27 OT DIIS     0.80E-01    6.1     0.00000939      -938.4958842228 -1.12E-06

  *** SCF run converged in    27 steps ***


  Electronic density on regular grids:       -423.9999981206        0.0000018794
  Core density on regular grids:              423.9999999742       -0.0000000258
  Total charge density on r-space grids:        0.0000018535
  Total charge density g-space grids:           0.0000018535

  Overlap energy of the core charge distribution:               0.00000008258491
  Self energy of the core charge distribution:              -2435.54055198066590
  Core Hamiltonian energy:                                    709.16936313683141
  Hartree energy:                                            1010.96555080430744
  Exchange-correlation energy:                               -223.09024626587635

  Total energy:                                              -938.49588422281852

 ENERGY| Total FORCE_EVAL ( QS ) energy [hartree]           -938.495885227086092

 OPT| **************************************************************************
 OPT| Step number                                                             10
 OPT| Optimization method                                                  LBFGS
 OPT| Total energy [hartree]                                     -938.4958852271
 OPT| Effective energy change [hartree]                            -0.0259955765
 OPT| Decrease in energy                                                     YES
 OPT| Used time [s]                                                      172.415
 OPT|
 OPT| Maximum step size                                             0.1783054088
 OPT| Convergence limit for maximum step size                       0.0030000000
 OPT| Maximum step size is converged                                          NO
 OPT|
 OPT| RMS step size                                                 0.0422254399
 OPT| Convergence limit for RMS step size                           0.0015000000
 OPT| RMS step size is converged                                              NO
 OPT|
 OPT| Maximum gradient                                              0.0380898894
 OPT| Convergence limit for maximum gradient                        0.0010000000
 OPT| Maximum gradient is converged                                           NO
 OPT|
 OPT| RMS gradient                                                  0.0073039454
 OPT| Convergence limit for RMS gradient                            0.0003000000
 OPT| RMS gradient is converged                                               NO
 OPT| **************************************************************************
 OPT| Estimated peak process memory after this step [MiB]                   1774

 --------------------------
 OPTIMIZATION STEP:     11
 --------------------------

 Number of electrons:                                                        424
 Number of occupied orbitals:                                                212
 Number of molecular orbitals:                                               212

 Number of orbital functions:                                                326
 Number of independent orbital functions:                                    326

 Extrapolation method: ASPC


 SCF WAVEFUNCTION OPTIMIZATION

  ----------------------------------- OT ---------------------------------------
  Minimizer      : DIIS                : direct inversion
                                         in the iterative subspace
                                         using   7 DIIS vectors
                                         safer DIIS on
  Preconditioner : FULL_SINGLE_INVERSE : inversion of 
                                         H + eS - 2*(Sc)(c^T*H*c+const)(Sc)^T
  Precond_solver : DEFAULT
  stepsize       :    0.08000000                  energy_gap     :    0.08000000
  eps_taylor     :   0.10000E-15                  max_taylor     :             4
  ----------------------------------- OT ---------------------------------------

  Step     Update method      Time    Convergence         Total energy    Change
  ------------------------------------------------------------------------------
     1 OT DIIS     0.80E-01    4.9     0.00171902      -938.4972123885 -9.38E+02
     2 OT DIIS     0.80E-01    6.1     0.00168763      -938.5037606284 -6.55E-03
     3 OT DIIS     0.80E-01    6.1     0.00123543      -938.5058851753 -2.12E-03
     4 OT DIIS     0.80E-01    6.1     0.00056811      -938.5076015787 -1.72E-03
     5 OT DIIS     0.80E-01    6.1     0.00033088      -938.5082173219 -6.16E-04
     6 OT DIIS     0.80E-01    6.1     0.00024717      -938.5084022088 -1.85E-04
     7 OT DIIS     0.80E-01    6.1     0.00013073      -938.5084941306 -9.19E-05
     8 OT DIIS     0.80E-01    6.1     0.00008655      -938.5085283367 -3.42E-05
     9 OT DIIS     0.80E-01    6.1     0.00005843      -938.5085429822 -1.46E-05
    10 OT DIIS     0.80E-01    6.1     0.00003889      -938.5085530839 -1.01E-05
    11 OT DIIS     0.80E-01    6.1     0.00003771      -938.5085582667 -5.18E-06
    12 OT DIIS     0.80E-01    6.1     0.00002783      -938.5085613178 -3.05E-06
    13 OT DIIS     0.80E-01    6.1     0.00002174      -938.5085636412 -2.32E-06
    14 OT DIIS     0.80E-01    6.1     0.00001789      -938.5085654439 -1.80E-06
    15 OT DIIS     0.80E-01    6.1     0.00001634      -938.5085667947 -1.35E-06
    16 OT DIIS     0.80E-01    6.1     0.00001372      -938.5085681450 -1.35E-06
    17 OT DIIS     0.80E-01    6.1     0.00001261      -938.5085693138 -1.17E-06
    18 OT DIIS     0.80E-01    6.1     0.00001056      -938.5085702764 -9.63E-07
    19 OT DIIS     0.80E-01    6.1     0.00001012      -938.5085713518 -1.08E-06
    20 OT DIIS     0.80E-01    6.1     0.00000955      -938.5085720253 -6.74E-07

  *** SCF run converged in    20 steps ***


  Electronic density on regular grids:       -423.9999980796        0.0000019204
  Core density on regular grids:              423.9999999739       -0.0000000261
  Total charge density on r-space grids:        0.0000018944
  Total charge density g-space grids:           0.0000018944

  Overlap energy of the core charge distribution:               0.00000006877783
  Self energy of the core charge distribution:              -2435.54055198066590
  Core Hamiltonian energy:                                    708.94714469278040
  Hartree energy:                                            1011.11976698687363
  Exchange-correlation energy:                               -223.03493179309976

  Total energy:                                              -938.50857202533371

 ENERGY| Total FORCE_EVAL ( QS ) energy [hartree]           -938.508572760172342

 OPT| **************************************************************************
 OPT| Step number                                                             11
 OPT| Optimization method                                                  LBFGS
 OPT| Total energy [hartree]                                     -938.5085727602
 OPT| Effective energy change [hartree]                            -0.0126875331
 OPT| Decrease in energy                                                     YES
 OPT| Used time [s]                                                      129.451
 OPT|
 OPT| Maximum step size                                             0.1150609325
 OPT| Convergence limit for maximum step size                       0.0030000000
 OPT| Maximum step size is converged                                          NO
 OPT|
 OPT| RMS step size                                                 0.0306121770
 OPT| Convergence limit for RMS step size                           0.0015000000
 OPT| RMS step size is converged                                              NO
 OPT|
 OPT| Maximum gradient                                              0.0248321916
 OPT| Convergence limit for maximum gradient                        0.0010000000
 OPT| Maximum gradient is converged                                           NO
 OPT|
 OPT| RMS gradient                                                  0.0067735029
 OPT| Convergence limit for RMS gradient                            0.0003000000
 OPT| RMS gradient is converged                                               NO
 OPT| **************************************************************************
 OPT| Estimated peak process memory after this step [MiB]                   1774

 --------------------------
 OPTIMIZATION STEP:     12
 --------------------------

 Number of electrons:                                                        424
 Number of occupied orbitals:                                                212
 Number of molecular orbitals:                                               212

 Number of orbital functions:                                                326
 Number of independent orbital functions:                                    326

 Extrapolation method: ASPC


 SCF WAVEFUNCTION OPTIMIZATION

  ----------------------------------- OT ---------------------------------------
  Minimizer      : DIIS                : direct inversion
                                         in the iterative subspace
                                         using   7 DIIS vectors
                                         safer DIIS on
  Preconditioner : FULL_SINGLE_INVERSE : inversion of 
                                         H + eS - 2*(Sc)(c^T*H*c+const)(Sc)^T
  Precond_solver : DEFAULT
  stepsize       :    0.08000000                  energy_gap     :    0.08000000
  eps_taylor     :   0.10000E-15                  max_taylor     :             4
  ----------------------------------- OT ---------------------------------------

  Step     Update method      Time    Convergence         Total energy    Change
  ------------------------------------------------------------------------------
     1 OT DIIS     0.80E-01    4.8     0.00201602      -938.5046719817 -9.39E+02
     2 OT DIIS     0.80E-01    6.1     0.00124108      -938.5160804036 -1.14E-02
     3 OT DIIS     0.80E-01    6.1     0.00122396      -938.5178792070 -1.80E-03
     4 OT DIIS     0.80E-01    6.1     0.00074240      -938.5194128312 -1.53E-03
     5 OT DIIS     0.80E-01    6.1     0.00034467      -938.5201828880 -7.70E-04
     6 OT DIIS     0.80E-01    6.1     0.00024181      -938.5204423022 -2.59E-04
     7 OT DIIS     0.80E-01    6.1     0.00014584      -938.5205496358 -1.07E-04
     8 OT DIIS     0.80E-01    6.1     0.00010178      -938.5205976619 -4.80E-05
     9 OT DIIS     0.80E-01    6.1     0.00008042      -938.5206204013 -2.27E-05
    10 OT DIIS     0.80E-01    6.1     0.00004993      -938.5206344682 -1.41E-05
    11 OT DIIS     0.80E-01    6.1     0.00003638      -938.5206444281 -9.96E-06
    12 OT DIIS     0.80E-01    6.1     0.00003560      -938.5206483843 -3.96E-06
    13 OT DIIS     0.80E-01    6.1     0.00002496      -938.5206510046 -2.62E-06
    14 OT DIIS     0.80E-01    6.1     0.00001945      -938.5206531692 -2.16E-06
    15 OT DIIS     0.80E-01    6.1     0.00001733      -938.5206547258 -1.56E-06
    16 OT DIIS     0.80E-01    6.1     0.00001545      -938.5206561561 -1.43E-06
    17 OT DIIS     0.80E-01    6.1     0.00001442      -938.5206574397 -1.28E-06
    18 OT DIIS     0.80E-01    6.1     0.00001290      -938.5206584017 -9.62E-07
    19 OT DIIS     0.80E-01    6.1     0.00001171      -938.5206596672 -1.27E-06
    20 OT DIIS     0.80E-01    6.1     0.00001171      -938.5206608840 -1.22E-06
    21 OT DIIS     0.80E-01    6.1     0.00001126      -938.5206619064 -1.02E-06
    22 OT DIIS     0.80E-01    6.1     0.00001039      -938.5206633247 -1.42E-06
    23 OT DIIS     0.80E-01    6.1     0.00000986      -938.5206646556 -1.33E-06

  *** SCF run converged in    23 steps ***


  Electronic density on regular grids:       -423.9999979493        0.0000020507
  Core density on regular grids:              423.9999999740       -0.0000000260
  Total charge density on r-space grids:        0.0000020247
  Total charge density g-space grids:           0.0000020247

  Overlap energy of the core charge distribution:               0.00000006305334
  Self energy of the core charge distribution:              -2435.54055198066590
  Core Hamiltonian energy:                                    709.04402098952426
  Hartree energy:                                            1011.03339637629767
  Exchange-correlation energy:                               -223.05753010384274

  Total energy:                                              -938.52066465563337

 ENERGY| Total FORCE_EVAL ( QS ) energy [hartree]           -938.520666064485454

 OPT| **************************************************************************
 OPT| Step number                                                             12
 OPT| Optimization method                                                  LBFGS
 OPT| Total energy [hartree]                                     -938.5206660645
 OPT| Effective energy change [hartree]                            -0.0120933043
 OPT| Decrease in energy                                                     YES
 OPT| Used time [s]                                                      147.675
 OPT|
 OPT| Maximum step size                                             0.0434702691
 OPT| Convergence limit for maximum step size                       0.0030000000
 OPT| Maximum step size is converged                                          NO
 OPT|
 OPT| RMS step size                                                 0.0101138643
 OPT| Convergence limit for RMS step size                           0.0015000000
 OPT| RMS step size is converged                                              NO
 OPT|
 OPT| Maximum gradient                                              0.0150521217
 OPT| Convergence limit for maximum gradient                        0.0010000000
 OPT| Maximum gradient is converged                                           NO
 OPT|
 OPT| RMS gradient                                                  0.0039217683
 OPT| Convergence limit for RMS gradient                            0.0003000000
 OPT| RMS gradient is converged                                               NO
 OPT| **************************************************************************
 OPT| Estimated peak process memory after this step [MiB]                   1774

 --------------------------
 OPTIMIZATION STEP:     13
 --------------------------

 Number of electrons:                                                        424
 Number of occupied orbitals:                                                212
 Number of molecular orbitals:                                               212

 Number of orbital functions:                                                326
 Number of independent orbital functions:                                    326

 Extrapolation method: ASPC


 SCF WAVEFUNCTION OPTIMIZATION

  ----------------------------------- OT ---------------------------------------
  Minimizer      : DIIS                : direct inversion
                                         in the iterative subspace
                                         using   7 DIIS vectors
                                         safer DIIS on
  Preconditioner : FULL_SINGLE_INVERSE : inversion of 
                                         H + eS - 2*(Sc)(c^T*H*c+const)(Sc)^T
  Precond_solver : DEFAULT
  stepsize       :    0.08000000                  energy_gap     :    0.08000000
  eps_taylor     :   0.10000E-15                  max_taylor     :             4
  ----------------------------------- OT ---------------------------------------

  Step     Update method      Time    Convergence         Total energy    Change
  ------------------------------------------------------------------------------
     1 OT DIIS     0.80E-01    4.9     0.00197192      -938.5138879912 -9.39E+02
     2 OT DIIS     0.80E-01    6.1     0.00126642      -938.5250441514 -1.12E-02
     3 OT DIIS     0.80E-01    6.1     0.00101909      -938.5274874515 -2.44E-03
     4 OT DIIS     0.80E-01    6.1     0.00079653      -938.5289130389 -1.43E-03
     5 OT DIIS     0.80E-01    6.1     0.00037081      -938.5297125169 -7.99E-04
     6 OT DIIS     0.80E-01    6.1     0.00022824      -938.5299410976 -2.29E-04
     7 OT DIIS     0.80E-01    6.1     0.00013862      -938.5300288628 -8.78E-05
     8 OT DIIS     0.80E-01    6.1     0.00007932      -938.5300680233 -3.92E-05
     9 OT DIIS     0.80E-01    6.1     0.00006212      -938.5300840355 -1.60E-05
    10 OT DIIS     0.80E-01    6.1     0.00004163      -938.5300931909 -9.16E-06
    11 OT DIIS     0.80E-01    6.1     0.00003059      -938.5300987262 -5.54E-06
    12 OT DIIS     0.80E-01    6.1     0.00002635      -938.5301019245 -3.20E-06
    13 OT DIIS     0.80E-01    6.1     0.00002169      -938.5301036363 -1.71E-06
    14 OT DIIS     0.80E-01    6.1     0.00001670      -938.5301050982 -1.46E-06
    15 OT DIIS     0.80E-01    6.1     0.00001410      -938.5301062106 -1.11E-06
    16 OT DIIS     0.80E-01    6.1     0.00001169      -938.5301070610 -8.50E-07
    17 OT DIIS     0.80E-01    6.1     0.00001022      -938.5301078728 -8.12E-07
    18 OT DIIS     0.80E-01    6.1     0.00000933      -938.5301083603 -4.87E-07

  *** SCF run converged in    18 steps ***


  Electronic density on regular grids:       -423.9999980008        0.0000019992
  Core density on regular grids:              423.9999999738       -0.0000000262
  Total charge density on r-space grids:        0.0000019730
  Total charge density g-space grids:           0.0000019730

  Overlap energy of the core charge distribution:               0.00000006482118
  Self energy of the core charge distribution:              -2435.54055198066590
  Core Hamiltonian energy:                                    709.12967823881002
  Hartree energy:                                            1010.95801329400035
  Exchange-correlation energy:                               -223.07724797726098

  Total energy:                                              -938.53010836029557

 ENERGY| Total FORCE_EVAL ( QS ) energy [hartree]           -938.530108906575720

 OPT| **************************************************************************
 OPT| Step number                                                             13
 OPT| Optimization method                                                  LBFGS
 OPT| Total energy [hartree]                                     -938.5301089066
 OPT| Effective energy change [hartree]                            -0.0094428421
 OPT| Decrease in energy                                                     YES
 OPT| Used time [s]                                                      117.471
 OPT|
 OPT| Maximum step size                                             0.0583746266
 OPT| Convergence limit for maximum step size                       0.0030000000
 OPT| Maximum step size is converged                                          NO
 OPT|
 OPT| RMS step size                                                 0.0157056262
 OPT| Convergence limit for RMS step size                           0.0015000000
 OPT| RMS step size is converged                                              NO
 OPT|
 OPT| Maximum gradient                                              0.0111015633
 OPT| Convergence limit for maximum gradient                        0.0010000000
 OPT| Maximum gradient is converged                                           NO
 OPT|
 OPT| RMS gradient                                                  0.0030411094
 OPT| Convergence limit for RMS gradient                            0.0003000000
 OPT| RMS gradient is converged                                               NO
 OPT| **************************************************************************
 OPT| Estimated peak process memory after this step [MiB]                   1774

 --------------------------
 OPTIMIZATION STEP:     14
 --------------------------

 Number of electrons:                                                        424
 Number of occupied orbitals:                                                212
 Number of molecular orbitals:                                               212

 Number of orbital functions:                                                326
 Number of independent orbital functions:                                    326

 Extrapolation method: ASPC


 SCF WAVEFUNCTION OPTIMIZATION

  ----------------------------------- OT ---------------------------------------
  Minimizer      : DIIS                : direct inversion
                                         in the iterative subspace
                                         using   7 DIIS vectors
                                         safer DIIS on
  Preconditioner : FULL_SINGLE_INVERSE : inversion of 
                                         H + eS - 2*(Sc)(c^T*H*c+const)(Sc)^T
  Precond_solver : DEFAULT
  stepsize       :    0.08000000                  energy_gap     :    0.08000000
  eps_taylor     :   0.10000E-15                  max_taylor     :             4
  ----------------------------------- OT ---------------------------------------

  Step     Update method      Time    Convergence         Total energy    Change
  ------------------------------------------------------------------------------
     1 OT DIIS     0.80E-01    4.9     0.00067534      -938.5362193217 -9.39E+02
     2 OT DIIS     0.80E-01    6.1     0.00054286      -938.5374427948 -1.22E-03
     3 OT DIIS     0.80E-01    6.1     0.00044211      -938.5377513358 -3.09E-04
     4 OT DIIS     0.80E-01    6.1     0.00030349      -938.5379841815 -2.33E-04
     5 OT DIIS     0.80E-01    6.1     0.00013373      -938.5381072140 -1.23E-04
     6 OT DIIS     0.80E-01    6.1     0.00008130      -938.5381460764 -3.89E-05
     7 OT DIIS     0.80E-01    6.1     0.00006205      -938.5381586124 -1.25E-05
     8 OT DIIS     0.80E-01    6.1     0.00003175      -938.5381657602 -7.15E-06
     9 OT DIIS     0.80E-01    6.1     0.00002679      -938.5381681536 -2.39E-06
    10 OT DIIS     0.80E-01    6.1     0.00001684      -938.5381696287 -1.48E-06
    11 OT DIIS     0.80E-01    6.1     0.00001229      -938.5381704273 -7.99E-07
    12 OT DIIS     0.80E-01    6.1     0.00001130      -938.5381708045 -3.77E-07
    13 OT DIIS     0.80E-01    6.1     0.00000767      -938.5381710357 -2.31E-07

  *** SCF run converged in    13 steps ***


  Electronic density on regular grids:       -423.9999982682        0.0000017318
  Core density on regular grids:              423.9999999736       -0.0000000264
  Total charge density on r-space grids:        0.0000017055
  Total charge density g-space grids:           0.0000017055

  Overlap energy of the core charge distribution:               0.00000006400644
  Self energy of the core charge distribution:              -2435.54055198066590
  Core Hamiltonian energy:                                    709.08125109747289
  Hartree energy:                                            1010.98120037763533
  Exchange-correlation energy:                               -223.06007059415379

  Total energy:                                              -938.53817103570486

 ENERGY| Total FORCE_EVAL ( QS ) energy [hartree]           -938.538171189308059

 OPT| **************************************************************************
 OPT| Step number                                                             14
 OPT| Optimization method                                                  LBFGS
 OPT| Total energy [hartree]                                     -938.5381711893
 OPT| Effective energy change [hartree]                            -0.0080622827
 OPT| Decrease in energy                                                     YES
 OPT| Used time [s]                                                       86.900
 OPT|
 OPT| Maximum step size                                             0.1061101649
 OPT| Convergence limit for maximum step size                       0.0030000000
 OPT| Maximum step size is converged                                          NO
 OPT|
 OPT| RMS step size                                                 0.0248025621
 OPT| Convergence limit for RMS step size                           0.0015000000
 OPT| RMS step size is converged                                              NO
 OPT|
 OPT| Maximum gradient                                              0.0228767056
 OPT| Convergence limit for maximum gradient                        0.0010000000
 OPT| Maximum gradient is converged                                           NO
 OPT|
 OPT| RMS gradient                                                  0.0039135753
 OPT| Convergence limit for RMS gradient                            0.0003000000
 OPT| RMS gradient is converged                                               NO
 OPT| **************************************************************************
 OPT| Estimated peak process memory after this step [MiB]                   1774

 --------------------------
 OPTIMIZATION STEP:     15
 --------------------------

 Number of electrons:                                                        424
 Number of occupied orbitals:                                                212
 Number of molecular orbitals:                                               212

 Number of orbital functions:                                                326
 Number of independent orbital functions:                                    326

 Extrapolation method: ASPC


 SCF WAVEFUNCTION OPTIMIZATION

  ----------------------------------- OT ---------------------------------------
  Minimizer      : DIIS                : direct inversion
                                         in the iterative subspace
                                         using   7 DIIS vectors
                                         safer DIIS on
  Preconditioner : FULL_SINGLE_INVERSE : inversion of 
                                         H + eS - 2*(Sc)(c^T*H*c+const)(Sc)^T
  Precond_solver : DEFAULT
  stepsize       :    0.08000000                  energy_gap     :    0.08000000
  eps_taylor     :   0.10000E-15                  max_taylor     :             4
  ----------------------------------- OT ---------------------------------------

  Step     Update method      Time    Convergence         Total energy    Change
  ------------------------------------------------------------------------------
     1 OT DIIS     0.80E-01    4.8     0.00076741      -938.5438608704 -9.39E+02
     2 OT DIIS     0.80E-01    6.1     0.00052268      -938.5456341706 -1.77E-03
     3 OT DIIS     0.80E-01    6.1     0.00051921      -938.5459653580 -3.31E-04
     4 OT DIIS     0.80E-01    6.1     0.00030246      -938.5462944983 -3.29E-04
     5 OT DIIS     0.80E-01    6.1     0.00014728      -938.5464449857 -1.50E-04
     6 OT DIIS     0.80E-01    6.1     0.00008669      -938.5464966051 -5.16E-05
     7 OT DIIS     0.80E-01    6.1     0.00006295      -938.5465132859 -1.67E-05
     8 OT DIIS     0.80E-01    6.1     0.00003453      -938.5465216933 -8.41E-06
     9 OT DIIS     0.80E-01    6.1     0.00002892      -938.5465246648 -2.97E-06
    10 OT DIIS     0.80E-01    6.1     0.00001926      -938.5465267620 -2.10E-06
    11 OT DIIS     0.80E-01    6.1     0.00001587      -938.5465281669 -1.40E-06
    12 OT DIIS     0.80E-01    6.1     0.00001530      -938.5465292029 -1.04E-06
    13 OT DIIS     0.80E-01    6.1     0.00001197      -938.5465299161 -7.13E-07
    14 OT DIIS     0.80E-01    6.1     0.00000981      -938.5465306160 -7.00E-07

  *** SCF run converged in    14 steps ***


  Electronic density on regular grids:       -423.9999982721        0.0000017279
  Core density on regular grids:              423.9999999736       -0.0000000264
  Total charge density on r-space grids:        0.0000017015
  Total charge density g-space grids:           0.0000017015

  Overlap energy of the core charge distribution:               0.00000006403076
  Self energy of the core charge distribution:              -2435.54055198066590
  Core Hamiltonian energy:                                    708.95356518553706
  Hartree energy:                                            1011.06761898638786
  Exchange-correlation energy:                               -223.02716287129505

  Total energy:                                              -938.54653061600516

 ENERGY| Total FORCE_EVAL ( QS ) energy [hartree]           -938.546531245454617

 OPT| **************************************************************************
 OPT| Step number                                                             15
 OPT| Optimization method                                                  LBFGS
 OPT| Total energy [hartree]                                     -938.5465312455
 OPT| Effective energy change [hartree]                            -0.0083600561
 OPT| Decrease in energy                                                     YES
 OPT| Used time [s]                                                       92.892
 OPT|
 OPT| Maximum step size                                             0.1860674028
 OPT| Convergence limit for maximum step size                       0.0030000000
 OPT| Maximum step size is converged                                          NO
 OPT|
 OPT| RMS step size                                                 0.0378166346
 OPT| Convergence limit for RMS step size                           0.0015000000
 OPT| RMS step size is converged                                              NO
 OPT|
 OPT| Maximum gradient                                              0.0183301826
 OPT| Convergence limit for maximum gradient                        0.0010000000
 OPT| Maximum gradient is converged                                           NO
 OPT|
 OPT| RMS gradient                                                  0.0040468281
 OPT| Convergence limit for RMS gradient                            0.0003000000
 OPT| RMS gradient is converged                                               NO
 OPT| **************************************************************************
 OPT| Estimated peak process memory after this step [MiB]                   1774

 --------------------------
 OPTIMIZATION STEP:     16
 --------------------------

 Number of electrons:                                                        424
 Number of occupied orbitals:                                                212
 Number of molecular orbitals:                                               212

 Number of orbital functions:                                                326
 Number of independent orbital functions:                                    326

 Extrapolation method: ASPC


 SCF WAVEFUNCTION OPTIMIZATION

  ----------------------------------- OT ---------------------------------------
  Minimizer      : DIIS                : direct inversion
                                         in the iterative subspace
                                         using   7 DIIS vectors
                                         safer DIIS on
  Preconditioner : FULL_SINGLE_INVERSE : inversion of 
                                         H + eS - 2*(Sc)(c^T*H*c+const)(Sc)^T
  Precond_solver : DEFAULT
  stepsize       :    0.08000000                  energy_gap     :    0.08000000
  eps_taylor     :   0.10000E-15                  max_taylor     :             4
  ----------------------------------- OT ---------------------------------------

  Step     Update method      Time    Convergence         Total energy    Change
  ------------------------------------------------------------------------------
     1 OT DIIS     0.80E-01    4.9     0.00161157      -938.5409527505 -9.39E+02
     2 OT DIIS     0.80E-01    6.1     0.00118019      -938.5485023544 -7.55E-03
     3 OT DIIS     0.80E-01    6.1     0.00095640      -938.5504285449 -1.93E-03
     4 OT DIIS     0.80E-01    6.1     0.00072149      -938.5517764096 -1.35E-03
     5 OT DIIS     0.80E-01    6.1     0.00032197      -938.5524954868 -7.19E-04
     6 OT DIIS     0.80E-01    6.1     0.00015350      -938.5527046384 -2.09E-04
     7 OT DIIS     0.80E-01    6.1     0.00011335      -938.5527649450 -6.03E-05
     8 OT DIIS     0.80E-01    6.1     0.00006293      -938.5527917354 -2.68E-05
     9 OT DIIS     0.80E-01    6.1     0.00004778      -938.5528020115 -1.03E-05
    10 OT DIIS     0.80E-01    6.1     0.00003299      -938.5528072304 -5.22E-06
    11 OT DIIS     0.80E-01    6.1     0.00002424      -938.5528102244 -2.99E-06
    12 OT DIIS     0.80E-01    6.1     0.00002183      -938.5528122379 -2.01E-06
    13 OT DIIS     0.80E-01    6.1     0.00001785      -938.5528134261 -1.19E-06
    14 OT DIIS     0.80E-01    6.1     0.00001367      -938.5528145802 -1.15E-06
    15 OT DIIS     0.80E-01    6.1     0.00001202      -938.5528156216 -1.04E-06
    16 OT DIIS     0.80E-01    7.4     0.00001061      -938.5528164070 -7.85E-07
    17 OT DIIS     0.80E-01    6.2     0.00000946      -938.5528172962 -8.89E-07

  *** SCF run converged in    17 steps ***


  Electronic density on regular grids:       -423.9999987008        0.0000012992
  Core density on regular grids:              423.9999999736       -0.0000000264
  Total charge density on r-space grids:        0.0000012728
  Total charge density g-space grids:           0.0000012728

  Overlap energy of the core charge distribution:               0.00000006724866
  Self energy of the core charge distribution:              -2435.54055198066590
  Core Hamiltonian energy:                                    708.85958857906974
  Hartree energy:                                            1011.13781060504391
  Exchange-correlation energy:                               -223.00966456693317

  Total energy:                                              -938.55281729623698

 ENERGY| Total FORCE_EVAL ( QS ) energy [hartree]           -938.552817867813928

 OPT| **************************************************************************
 OPT| Step number                                                             16
 OPT| Optimization method                                                  LBFGS
 OPT| Total energy [hartree]                                     -938.5528178678
 OPT| Effective energy change [hartree]                            -0.0062866224
 OPT| Decrease in energy                                                     YES
 OPT| Used time [s]                                                      113.056
 OPT|
 OPT| Maximum step size                                             0.1060522961
 OPT| Convergence limit for maximum step size                       0.0030000000
 OPT| Maximum step size is converged                                          NO
 OPT|
 OPT| RMS step size                                                 0.0197849552
 OPT| Convergence limit for RMS step size                           0.0015000000
 OPT| RMS step size is converged                                              NO
 OPT|
 OPT| Maximum gradient                                              0.0142769929
 OPT| Convergence limit for maximum gradient                        0.0010000000
 OPT| Maximum gradient is converged                                           NO
 OPT|
 OPT| RMS gradient                                                  0.0036205915
 OPT| Convergence limit for RMS gradient                            0.0003000000
 OPT| RMS gradient is converged                                               NO
 OPT| **************************************************************************
 OPT| Estimated peak process memory after this step [MiB]                   1789

 --------------------------
 OPTIMIZATION STEP:     17
 --------------------------

 Number of electrons:                                                        424
 Number of occupied orbitals:                                                212
 Number of molecular orbitals:                                               212

 Number of orbital functions:                                                326
 Number of independent orbital functions:                                    326

 Extrapolation method: ASPC


 SCF WAVEFUNCTION OPTIMIZATION

  ----------------------------------- OT ---------------------------------------
  Minimizer      : DIIS                : direct inversion
                                         in the iterative subspace
                                         using   7 DIIS vectors
                                         safer DIIS on
  Preconditioner : FULL_SINGLE_INVERSE : inversion of 
                                         H + eS - 2*(Sc)(c^T*H*c+const)(Sc)^T
  Precond_solver : DEFAULT
  stepsize       :    0.08000000                  energy_gap     :    0.08000000
  eps_taylor     :   0.10000E-15                  max_taylor     :             4
  ----------------------------------- OT ---------------------------------------

  Step     Update method      Time    Convergence         Total energy    Change
  ------------------------------------------------------------------------------
     1 OT DIIS     0.80E-01    4.9     0.00131183      -938.5507545956 -9.39E+02
     2 OT DIIS     0.80E-01    6.1     0.00098244      -938.5551774117 -4.42E-03
     3 OT DIIS     0.80E-01    6.1     0.00085704      -938.5561791322 -1.00E-03
     4 OT DIIS     0.80E-01    6.1     0.00055469      -938.5569325782 -7.53E-04
     5 OT DIIS     0.80E-01    6.1     0.00025914      -938.5573678466 -4.35E-04
     6 OT DIIS     0.80E-01    6.1     0.00015231      -938.5575220386 -1.54E-04
     7 OT DIIS     0.80E-01    6.1     0.00012220      -938.5575597091 -3.77E-05
     8 OT DIIS     0.80E-01    6.1     0.00005572      -938.5575872224 -2.75E-05
     9 OT DIIS     0.80E-01    6.1     0.00005003      -938.5575937827 -6.56E-06
    10 OT DIIS     0.80E-01    6.1     0.00002981      -938.5575992709 -5.49E-06
    11 OT DIIS     0.80E-01    6.1     0.00002378      -938.5576018332 -2.56E-06
    12 OT DIIS     0.80E-01    6.1     0.00002176      -938.5576032114 -1.38E-06
    13 OT DIIS     0.80E-01    6.1     0.00001548      -938.5576042602 -1.05E-06
    14 OT DIIS     0.80E-01    6.1     0.00001205      -938.5576050170 -7.57E-07
    15 OT DIIS     0.80E-01    6.1     0.00001109      -938.5576056918 -6.75E-07
    16 OT DIIS     0.80E-01    6.1     0.00000921      -938.5576062090 -5.17E-07

  *** SCF run converged in    16 steps ***


  Electronic density on regular grids:       -423.9999985662        0.0000014338
  Core density on regular grids:              423.9999999737       -0.0000000263
  Total charge density on r-space grids:        0.0000014075
  Total charge density g-space grids:           0.0000014075

  Overlap energy of the core charge distribution:               0.00000006412237
  Self energy of the core charge distribution:              -2435.54055198066590
  Core Hamiltonian energy:                                    708.82921810934749
  Hartree energy:                                            1011.15938569305945
  Exchange-correlation energy:                               -223.00565809485033

  Total energy:                                              -938.55760620898673

 ENERGY| Total FORCE_EVAL ( QS ) energy [hartree]           -938.557606777766296

 OPT| **************************************************************************
 OPT| Step number                                                             17
 OPT| Optimization method                                                  LBFGS
 OPT| Total energy [hartree]                                     -938.5576067778
 OPT| Effective energy change [hartree]                            -0.0047889100
 OPT| Decrease in energy                                                     YES
 OPT| Used time [s]                                                      105.539
 OPT|
 OPT| Maximum step size                                             0.0365597995
 OPT| Convergence limit for maximum step size                       0.0030000000
 OPT| Maximum step size is converged                                          NO
 OPT|
 OPT| RMS step size                                                 0.0084871224
 OPT| Convergence limit for RMS step size                           0.0015000000
 OPT| RMS step size is converged                                              NO
 OPT|
 OPT| Maximum gradient                                              0.0141635114
 OPT| Convergence limit for maximum gradient                        0.0010000000
 OPT| Maximum gradient is converged                                           NO
 OPT|
 OPT| RMS gradient                                                  0.0028267697
 OPT| Convergence limit for RMS gradient                            0.0003000000
 OPT| RMS gradient is converged                                               NO
 OPT| **************************************************************************
 OPT| Estimated peak process memory after this step [MiB]                   1790

 --------------------------
 OPTIMIZATION STEP:     18
 --------------------------

 Number of electrons:                                                        424
 Number of occupied orbitals:                                                212
 Number of molecular orbitals:                                               212

 Number of orbital functions:                                                326
 Number of independent orbital functions:                                    326

 Extrapolation method: ASPC


 SCF WAVEFUNCTION OPTIMIZATION

  ----------------------------------- OT ---------------------------------------
  Minimizer      : DIIS                : direct inversion
                                         in the iterative subspace
                                         using   7 DIIS vectors
                                         safer DIIS on
  Preconditioner : FULL_SINGLE_INVERSE : inversion of 
                                         H + eS - 2*(Sc)(c^T*H*c+const)(Sc)^T
  Precond_solver : DEFAULT
  stepsize       :    0.08000000                  energy_gap     :    0.08000000
  eps_taylor     :   0.10000E-15                  max_taylor     :             4
  ----------------------------------- OT ---------------------------------------

  Step     Update method      Time    Convergence         Total energy    Change
  ------------------------------------------------------------------------------
     1 OT DIIS     0.80E-01    4.9     0.00120885      -938.5575587194 -9.39E+02
     2 OT DIIS     0.80E-01    6.1     0.00098227      -938.5615265274 -3.97E-03
     3 OT DIIS     0.80E-01    6.1     0.00065655      -938.5628959181 -1.37E-03
     4 OT DIIS     0.80E-01    6.1     0.00062209      -938.5636606905 -7.65E-04
     5 OT DIIS     0.80E-01    6.1     0.00021758      -938.5641634211 -5.03E-04
     6 OT DIIS     0.80E-01    6.1     0.00011389      -938.5642776609 -1.14E-04
     7 OT DIIS     0.80E-01    6.1     0.00008111      -938.5643023946 -2.47E-05
     8 OT DIIS     0.80E-01    6.1     0.00004641      -938.5643150487 -1.27E-05
     9 OT DIIS     0.80E-01    6.1     0.00003921      -938.5643195354 -4.49E-06
    10 OT DIIS     0.80E-01    6.1     0.00002440      -938.5643225623 -3.03E-06
    11 OT DIIS     0.80E-01    6.1     0.00001795      -938.5643242555 -1.69E-06
    12 OT DIIS     0.80E-01    6.1     0.00001599      -938.5643253447 -1.09E-06
    13 OT DIIS     0.80E-01    6.1     0.00001279      -938.5643259752 -6.30E-07
    14 OT DIIS     0.80E-01    6.1     0.00000993      -938.5643266547 -6.80E-07

  *** SCF run converged in    14 steps ***


  Electronic density on regular grids:       -423.9999987924        0.0000012076
  Core density on regular grids:              423.9999999739       -0.0000000261
  Total charge density on r-space grids:        0.0000011815
  Total charge density g-space grids:           0.0000011815

  Overlap energy of the core charge distribution:               0.00000005748016
  Self energy of the core charge distribution:              -2435.54055198066590
  Core Hamiltonian energy:                                    708.69319562515909
  Hartree energy:                                            1011.25344446243491
  Exchange-correlation energy:                               -222.97041481914772

  Total energy:                                              -938.56432665473949

 ENERGY| Total FORCE_EVAL ( QS ) energy [hartree]           -938.564327207194992

 OPT| **************************************************************************
 OPT| Step number                                                             18
 OPT| Optimization method                                                  LBFGS
 OPT| Total energy [hartree]                                     -938.5643272072
 OPT| Effective energy change [hartree]                            -0.0067204294
 OPT| Decrease in energy                                                     YES
 OPT| Used time [s]                                                       92.897
 OPT|
 OPT| Maximum step size                                             0.1288822366
 OPT| Convergence limit for maximum step size                       0.0030000000
 OPT| Maximum step size is converged                                          NO
 OPT|
 OPT| RMS step size                                                 0.0232920601
 OPT| Convergence limit for RMS step size                           0.0015000000
 OPT| RMS step size is converged                                              NO
 OPT|
 OPT| Maximum gradient                                              0.0138719698
 OPT| Convergence limit for maximum gradient                        0.0010000000
 OPT| Maximum gradient is converged                                           NO
 OPT|
 OPT| RMS gradient                                                  0.0035248113
 OPT| Convergence limit for RMS gradient                            0.0003000000
 OPT| RMS gradient is converged                                               NO
 OPT| **************************************************************************
 OPT| Estimated peak process memory after this step [MiB]                   1793

 --------------------------
 OPTIMIZATION STEP:     19
 --------------------------

 Number of electrons:                                                        424
 Number of occupied orbitals:                                                212
 Number of molecular orbitals:                                               212

 Number of orbital functions:                                                326
 Number of independent orbital functions:                                    326

 Extrapolation method: ASPC


 SCF WAVEFUNCTION OPTIMIZATION

  ----------------------------------- OT ---------------------------------------
  Minimizer      : DIIS                : direct inversion
                                         in the iterative subspace
                                         using   7 DIIS vectors
                                         safer DIIS on
  Preconditioner : FULL_SINGLE_INVERSE : inversion of 
                                         H + eS - 2*(Sc)(c^T*H*c+const)(Sc)^T
  Precond_solver : DEFAULT
  stepsize       :    0.08000000                  energy_gap     :    0.08000000
  eps_taylor     :   0.10000E-15                  max_taylor     :             4
  ----------------------------------- OT ---------------------------------------

  Step     Update method      Time    Convergence         Total energy    Change
  ------------------------------------------------------------------------------
     1 OT DIIS     0.80E-01    4.9     0.00119163      -938.5637508077 -9.39E+02
     2 OT DIIS     0.80E-01    6.1     0.00083915      -938.5683255740 -4.57E-03
     3 OT DIIS     0.80E-01    6.1     0.00080265      -938.5694034491 -1.08E-03
     4 OT DIIS     0.80E-01    6.1     0.00058541      -938.5703150234 -9.12E-04
     5 OT DIIS     0.80E-01    6.1     0.00023718      -938.5708431174 -5.28E-04
     6 OT DIIS     0.80E-01    6.1     0.00015637      -938.5709611058 -1.18E-04
     7 OT DIIS     0.80E-01    6.1     0.00009623      -938.5709981104 -3.70E-05
     8 OT DIIS     0.80E-01    6.1     0.00005438      -938.5710152825 -1.72E-05
     9 OT DIIS     0.80E-01    6.1     0.00004375      -938.5710209474 -5.66E-06
    10 OT DIIS     0.80E-01    6.1     0.00002883      -938.5710248967 -3.95E-06
    11 OT DIIS     0.80E-01    6.1     0.00002197      -938.5710273895 -2.49E-06
    12 OT DIIS     0.80E-01    6.1     0.00002043      -938.5710288893 -1.50E-06
    13 OT DIIS     0.80E-01    6.1     0.00001550      -938.5710301020 -1.21E-06
    14 OT DIIS     0.80E-01    6.1     0.00001370      -938.5710312174 -1.12E-06
    15 OT DIIS     0.80E-01    6.1     0.00001245      -938.5710321923 -9.75E-07
    16 OT DIIS     0.80E-01    6.1     0.00001104      -938.5710331691 -9.77E-07
    17 OT DIIS     0.80E-01    6.1     0.00001046      -938.5710341824 -1.01E-06
    18 OT DIIS     0.80E-01    6.1     0.00000968      -938.5710348903 -7.08E-07

  *** SCF run converged in    18 steps ***


  Electronic density on regular grids:       -423.9999987082        0.0000012918
  Core density on regular grids:              423.9999999741       -0.0000000259
  Total charge density on r-space grids:        0.0000012659
  Total charge density g-space grids:           0.0000012659

  Overlap energy of the core charge distribution:               0.00000006053540
  Self energy of the core charge distribution:              -2435.54055198066590
  Core Hamiltonian energy:                                    708.68439448482229
  Hartree energy:                                            1011.25786688809274
  Exchange-correlation energy:                               -222.97274434309512

  Total energy:                                              -938.57103489031033

 ENERGY| Total FORCE_EVAL ( QS ) energy [hartree]           -938.571035681521948

 OPT| **************************************************************************
 OPT| Step number                                                             19
 OPT| Optimization method                                                  LBFGS
 OPT| Total energy [hartree]                                     -938.5710356815
 OPT| Effective energy change [hartree]                            -0.0067084743
 OPT| Decrease in energy                                                     YES
 OPT| Used time [s]                                                      117.286
 OPT|
 OPT| Maximum step size                                             0.1263664763
 OPT| Convergence limit for maximum step size                       0.0030000000
 OPT| Maximum step size is converged                                          NO
 OPT|
 OPT| RMS step size                                                 0.0220716380
 OPT| Convergence limit for RMS step size                           0.0015000000
 OPT| RMS step size is converged                                              NO
 OPT|
 OPT| Maximum gradient                                              0.0134879411
 OPT| Convergence limit for maximum gradient                        0.0010000000
 OPT| Maximum gradient is converged                                           NO
 OPT|
 OPT| RMS gradient                                                  0.0034947840
 OPT| Convergence limit for RMS gradient                            0.0003000000
 OPT| RMS gradient is converged                                               NO
 OPT| **************************************************************************
 OPT| Estimated peak process memory after this step [MiB]                   1793

 --------------------------
 OPTIMIZATION STEP:     20
 --------------------------

 Number of electrons:                                                        424
 Number of occupied orbitals:                                                212
 Number of molecular orbitals:                                               212

 Number of orbital functions:                                                326
 Number of independent orbital functions:                                    326

 Extrapolation method: ASPC


 SCF WAVEFUNCTION OPTIMIZATION

  ----------------------------------- OT ---------------------------------------
  Minimizer      : DIIS                : direct inversion
                                         in the iterative subspace
                                         using   7 DIIS vectors
                                         safer DIIS on
  Preconditioner : FULL_SINGLE_INVERSE : inversion of 
                                         H + eS - 2*(Sc)(c^T*H*c+const)(Sc)^T
  Precond_solver : DEFAULT
  stepsize       :    0.08000000                  energy_gap     :    0.08000000
  eps_taylor     :   0.10000E-15                  max_taylor     :             4
  ----------------------------------- OT ---------------------------------------

  Step     Update method      Time    Convergence         Total energy    Change
  ------------------------------------------------------------------------------
     1 OT DIIS     0.80E-01    4.8     0.00185709      -938.5624940130 -9.39E+02
     2 OT DIIS     0.80E-01    6.1     0.00126525      -938.5745505478 -1.21E-02
     3 OT DIIS     0.80E-01    6.1     0.00107574      -938.5779955757 -3.45E-03
     4 OT DIIS     0.80E-01    6.1     0.00089220      -938.5805702535 -2.57E-03
     5 OT DIIS     0.80E-01    6.1     0.00033895      -938.5815876850 -1.02E-03
     6 OT DIIS     0.80E-01    6.1     0.00020927      -938.5818198779 -2.32E-04
     7 OT DIIS     0.80E-01    6.1     0.00012247      -938.5818964369 -7.66E-05
     8 OT DIIS     0.80E-01    6.1     0.00007769      -938.5819300103 -3.36E-05
     9 OT DIIS     0.80E-01    6.1     0.00005612      -938.5819434336 -1.34E-05
    10 OT DIIS     0.80E-01    6.1     0.00003873      -938.5819509972 -7.56E-06
    11 OT DIIS     0.80E-01    6.1     0.00002746      -938.5819560870 -5.09E-06
    12 OT DIIS     0.80E-01    6.1     0.00002628      -938.5819592677 -3.18E-06
    13 OT DIIS     0.80E-01    6.1     0.00002144      -938.5819612040 -1.94E-06
    14 OT DIIS     0.80E-01    6.1     0.00001680      -938.5819628752 -1.67E-06
    15 OT DIIS     0.80E-01    6.1     0.00001359      -938.5819641730 -1.30E-06
    16 OT DIIS     0.80E-01    6.1     0.00001076      -938.5819650823 -9.09E-07
    17 OT DIIS     0.80E-01    6.1     0.00000940      -938.5819657096 -6.27E-07

  *** SCF run converged in    17 steps ***


  Electronic density on regular grids:       -423.9999986253        0.0000013747
  Core density on regular grids:              423.9999999738       -0.0000000262
  Total charge density on r-space grids:        0.0000013485
  Total charge density g-space grids:           0.0000013485

  Overlap energy of the core charge distribution:               0.00000005422592
  Self energy of the core charge distribution:              -2435.54055198066590
  Core Hamiltonian energy:                                    708.54502366378733
  Hartree energy:                                            1011.34012012465644
  Exchange-correlation energy:                               -222.92655757162655

  Total energy:                                              -938.58196570962275

 ENERGY| Total FORCE_EVAL ( QS ) energy [hartree]           -938.581966042083877

 OPT| **************************************************************************
 OPT| Step number                                                             20
 OPT| Optimization method                                                  LBFGS
 OPT| Total energy [hartree]                                     -938.5819660421
 OPT| Effective energy change [hartree]                            -0.0109303606
 OPT| Decrease in energy                                                     YES
 OPT| Used time [s]                                                      111.211
 OPT|
 OPT| Maximum step size                                             0.3855648367
 OPT| Convergence limit for maximum step size                       0.0030000000
 OPT| Maximum step size is converged                                          NO
 OPT|
 OPT| RMS step size                                                 0.0589761774
 OPT| Convergence limit for RMS step size                           0.0015000000
 OPT| RMS step size is converged                                              NO
 OPT|
 OPT| Maximum gradient                                              0.0205829101
 OPT| Convergence limit for maximum gradient                        0.0010000000
 OPT| Maximum gradient is converged                                           NO
 OPT|
 OPT| RMS gradient                                                  0.0049707883
 OPT| Convergence limit for RMS gradient                            0.0003000000
 OPT| RMS gradient is converged                                               NO
 OPT| **************************************************************************
 OPT| Estimated peak process memory after this step [MiB]                   1793

 --------------------------
 OPTIMIZATION STEP:     21
 --------------------------

 Number of electrons:                                                        424
 Number of occupied orbitals:                                                212
 Number of molecular orbitals:                                               212

 Number of orbital functions:                                                326
 Number of independent orbital functions:                                    326

 Extrapolation method: ASPC


 SCF WAVEFUNCTION OPTIMIZATION

  ----------------------------------- OT ---------------------------------------
  Minimizer      : DIIS                : direct inversion
                                         in the iterative subspace
                                         using   7 DIIS vectors
                                         safer DIIS on
  Preconditioner : FULL_SINGLE_INVERSE : inversion of 
                                         H + eS - 2*(Sc)(c^T*H*c+const)(Sc)^T
  Precond_solver : DEFAULT
  stepsize       :    0.08000000                  energy_gap     :    0.08000000
  eps_taylor     :   0.10000E-15                  max_taylor     :             4
  ----------------------------------- OT ---------------------------------------

  Step     Update method      Time    Convergence         Total energy    Change
  ------------------------------------------------------------------------------
     1 OT DIIS     0.80E-01    4.8     0.00213063      -938.5668969927 -9.39E+02
     2 OT DIIS     0.80E-01    6.1     0.00129623      -938.5832874757 -1.64E-02
     3 OT DIIS     0.80E-01    6.1     0.00128039      -938.5873277175 -4.04E-03
     4 OT DIIS     0.80E-01    6.1     0.00084682      -938.5903473193 -3.02E-03
     5 OT DIIS     0.80E-01    6.1     0.00045491      -938.5914092385 -1.06E-03
     6 OT DIIS     0.80E-01    6.1     0.00020616      -938.5918567485 -4.48E-04
     7 OT DIIS     0.80E-01    6.1     0.00018365      -938.5919750045 -1.18E-04
     8 OT DIIS     0.80E-01    6.1     0.00011374      -938.5920425686 -6.76E-05
     9 OT DIIS     0.80E-01    6.1     0.00008466      -938.5920766093 -3.40E-05
    10 OT DIIS     0.80E-01    6.1     0.00006228      -938.5920972955 -2.07E-05
    11 OT DIIS     0.80E-01    6.1     0.00005067      -938.5921157762 -1.85E-05
    12 OT DIIS     0.80E-01    6.1     0.00004832      -938.5921304239 -1.46E-05
    13 OT DIIS     0.80E-01    6.1     0.00004476      -938.5921416173 -1.12E-05
    14 OT DIIS     0.80E-01    6.1     0.00003372      -938.5921502129 -8.60E-06
    15 OT DIIS     0.80E-01    6.1     0.00002928      -938.5921582864 -8.07E-06
    16 OT DIIS     0.80E-01    6.1     0.00002547      -938.5921631325 -4.85E-06
    17 OT DIIS     0.80E-01    6.1     0.00002167      -938.5921668865 -3.75E-06
    18 OT DIIS     0.80E-01    6.1     0.00001933      -938.5921691182 -2.23E-06
    19 OT DIIS     0.80E-01    6.1     0.00001548      -938.5921711396 -2.02E-06
    20 OT DIIS     0.80E-01    6.1     0.00001440      -938.5921727396 -1.60E-06
    21 OT DIIS     0.80E-01    6.1     0.00001357      -938.5921738895 -1.15E-06
    22 OT DIIS     0.80E-01    6.1     0.00001175      -938.5921747453 -8.56E-07
    23 OT DIIS     0.80E-01    6.1     0.00001045      -938.5921757412 -9.96E-07
    24 OT DIIS     0.80E-01    6.1     0.00000958      -938.5921765060 -7.65E-07

  *** SCF run converged in    24 steps ***


  Electronic density on regular grids:       -423.9999976966        0.0000023034
  Core density on regular grids:              423.9999999737       -0.0000000263
  Total charge density on r-space grids:        0.0000022771
  Total charge density g-space grids:           0.0000022771

  Overlap energy of the core charge distribution:               0.00000006509957
  Self energy of the core charge distribution:              -2435.54055198066590
  Core Hamiltonian energy:                                    708.59953587007919
  Hartree energy:                                            1011.29280884692582
  Exchange-correlation energy:                               -222.94396930742542

  Total energy:                                              -938.59217650598680

 ENERGY| Total FORCE_EVAL ( QS ) energy [hartree]           -938.592177237366968

 OPT| **************************************************************************
 OPT| Step number                                                             21
 OPT| Optimization method                                                  LBFGS
 OPT| Total energy [hartree]                                     -938.5921772374
 OPT| Effective energy change [hartree]                            -0.0102111953
 OPT| Decrease in energy                                                     YES
 OPT| Used time [s]                                                      153.792
 OPT|
 OPT| Maximum step size                                             0.3119219719
 OPT| Convergence limit for maximum step size                       0.0030000000
 OPT| Maximum step size is converged                                          NO
 OPT|
 OPT| RMS step size                                                 0.0515930710
 OPT| Convergence limit for RMS step size                           0.0015000000
 OPT| RMS step size is converged                                              NO
 OPT|
 OPT| Maximum gradient                                              0.0329366026
 OPT| Convergence limit for maximum gradient                        0.0010000000
 OPT| Maximum gradient is converged                                           NO
 OPT|
 OPT| RMS gradient                                                  0.0059045218
 OPT| Convergence limit for RMS gradient                            0.0003000000
 OPT| RMS gradient is converged                                               NO
 OPT| **************************************************************************
 OPT| Estimated peak process memory after this step [MiB]                   1793

 --------------------------
 OPTIMIZATION STEP:     22
 --------------------------

 Number of electrons:                                                        424
 Number of occupied orbitals:                                                212
 Number of molecular orbitals:                                               212

 Number of orbital functions:                                                326
 Number of independent orbital functions:                                    326

 Extrapolation method: ASPC


 SCF WAVEFUNCTION OPTIMIZATION

  ----------------------------------- OT ---------------------------------------
  Minimizer      : DIIS                : direct inversion
                                         in the iterative subspace
                                         using   7 DIIS vectors
                                         safer DIIS on
  Preconditioner : FULL_SINGLE_INVERSE : inversion of 
                                         H + eS - 2*(Sc)(c^T*H*c+const)(Sc)^T
  Precond_solver : DEFAULT
  stepsize       :    0.08000000                  energy_gap     :    0.08000000
  eps_taylor     :   0.10000E-15                  max_taylor     :             4
  ----------------------------------- OT ---------------------------------------

  Step     Update method      Time    Convergence         Total energy    Change
  ------------------------------------------------------------------------------
     1 OT DIIS     0.80E-01    4.9     0.00149966      -938.5949421804 -9.39E+02
     2 OT DIIS     0.80E-01    6.1     0.00100383      -938.6015605013 -6.62E-03
     3 OT DIIS     0.80E-01    6.1     0.00099505      -938.6027859935 -1.23E-03
     4 OT DIIS     0.80E-01    6.1     0.00061055      -938.6039115515 -1.13E-03
     5 OT DIIS     0.80E-01    6.1     0.00030037      -938.6044864835 -5.75E-04
     6 OT DIIS     0.80E-01    6.1     0.00022433      -938.6046649215 -1.78E-04
     7 OT DIIS     0.80E-01    6.1     0.00012901      -938.6047384454 -7.35E-05
     8 OT DIIS     0.80E-01    6.1     0.00007530      -938.6047741690 -3.57E-05
     9 OT DIIS     0.80E-01    6.1     0.00006058      -938.6047863467 -1.22E-05
    10 OT DIIS     0.80E-01    6.1     0.00003760      -938.6047956272 -9.28E-06
    11 OT DIIS     0.80E-01    6.1     0.00003385      -938.6048007277 -5.10E-06
    12 OT DIIS     0.80E-01    6.1     0.00002813      -938.6048038803 -3.15E-06
    13 OT DIIS     0.80E-01    6.1     0.00002253      -938.6048062911 -2.41E-06
    14 OT DIIS     0.80E-01    6.1     0.00001930      -938.6048083030 -2.01E-06
    15 OT DIIS     0.80E-01    6.1     0.00001709      -938.6048100672 -1.76E-06
    16 OT DIIS     0.80E-01    6.1     0.00001410      -938.6048116398 -1.57E-06
    17 OT DIIS     0.80E-01    6.1     0.00001256      -938.6048130192 -1.38E-06
    18 OT DIIS     0.80E-01    6.1     0.00001017      -938.6048138266 -8.07E-07
    19 OT DIIS     0.80E-01    6.1     0.00000867      -938.6048146005 -7.74E-07

  *** SCF run converged in    19 steps ***


  Electronic density on regular grids:       -423.9999973849        0.0000026151
  Core density on regular grids:              423.9999999738       -0.0000000262
  Total charge density on r-space grids:        0.0000025889
  Total charge density g-space grids:           0.0000025889

  Overlap energy of the core charge distribution:               0.00000006186586
  Self energy of the core charge distribution:              -2435.54055198066590
  Core Hamiltonian energy:                                    708.73538713334688
  Hartree energy:                                            1011.18270184557559
  Exchange-correlation energy:                               -222.98235166061411

  Total energy:                                              -938.60481460049186

 ENERGY| Total FORCE_EVAL ( QS ) energy [hartree]           -938.604815034633816

 OPT| **************************************************************************
 OPT| Step number                                                             22
 OPT| Optimization method                                                  LBFGS
 OPT| Total energy [hartree]                                     -938.6048150346
 OPT| Effective energy change [hartree]                            -0.0126377973
 OPT| Decrease in energy                                                     YES
 OPT| Used time [s]                                                      123.330
 OPT|
 OPT| Maximum step size                                             0.0883773151
 OPT| Convergence limit for maximum step size                       0.0030000000
 OPT| Maximum step size is converged                                          NO
 OPT|
 OPT| RMS step size                                                 0.0197616975
 OPT| Convergence limit for RMS step size                           0.0015000000
 OPT| RMS step size is converged                                              NO
 OPT|
 OPT| Maximum gradient                                              0.0160485558
 OPT| Convergence limit for maximum gradient                        0.0010000000
 OPT| Maximum gradient is converged                                           NO
 OPT|
 OPT| RMS gradient                                                  0.0039218996
 OPT| Convergence limit for RMS gradient                            0.0003000000
 OPT| RMS gradient is converged                                               NO
 OPT| **************************************************************************
 OPT| Estimated peak process memory after this step [MiB]                   1793

 --------------------------
 OPTIMIZATION STEP:     23
 --------------------------

 Number of electrons:                                                        424
 Number of occupied orbitals:                                                212
 Number of molecular orbitals:                                               212

 Number of orbital functions:                                                326
 Number of independent orbital functions:                                    326

 Extrapolation method: ASPC


 SCF WAVEFUNCTION OPTIMIZATION

  ----------------------------------- OT ---------------------------------------
  Minimizer      : DIIS                : direct inversion
                                         in the iterative subspace
                                         using   7 DIIS vectors
                                         safer DIIS on
  Preconditioner : FULL_SINGLE_INVERSE : inversion of 
                                         H + eS - 2*(Sc)(c^T*H*c+const)(Sc)^T
  Precond_solver : DEFAULT
  stepsize       :    0.08000000                  energy_gap     :    0.08000000
  eps_taylor     :   0.10000E-15                  max_taylor     :             4
  ----------------------------------- OT ---------------------------------------

  Step     Update method      Time    Convergence         Total energy    Change
  ------------------------------------------------------------------------------
     1 OT DIIS     0.80E-01    4.9     0.00140508      -938.6061580454 -9.39E+02
     2 OT DIIS     0.80E-01    6.1     0.00096106      -938.6126962504 -6.54E-03
     3 OT DIIS     0.80E-01    6.1     0.00110406      -938.6139398031 -1.24E-03
     4 OT DIIS     0.80E-01    6.1     0.00061020      -938.6154184082 -1.48E-03
     5 OT DIIS     0.80E-01    6.1     0.00032907      -938.6161096591 -6.91E-04
     6 OT DIIS     0.80E-01    6.1     0.00020728      -938.6163011966 -1.92E-04
     7 OT DIIS     0.80E-01    6.1     0.00012163      -938.6163724710 -7.13E-05
     8 OT DIIS     0.80E-01    6.1     0.00006603      -938.6164021649 -2.97E-05
     9 OT DIIS     0.80E-01    6.1     0.00005621      -938.6164114376 -9.27E-06
    10 OT DIIS     0.80E-01    6.1     0.00003471      -938.6164176467 -6.21E-06
    11 OT DIIS     0.80E-01    6.1     0.00002906      -938.6164208176 -3.17E-06
    12 OT DIIS     0.80E-01    6.1     0.00002417      -938.6164229891 -2.17E-06
    13 OT DIIS     0.80E-01    6.1     0.00001899      -938.6164245028 -1.51E-06
    14 OT DIIS     0.80E-01    6.1     0.00001589      -938.6164258971 -1.39E-06
    15 OT DIIS     0.80E-01    6.1     0.00001401      -938.6164271809 -1.28E-06
    16 OT DIIS     0.80E-01    6.1     0.00001186      -938.6164283053 -1.12E-06
    17 OT DIIS     0.80E-01    6.1     0.00001053      -938.6164294322 -1.13E-06
    18 OT DIIS     0.80E-01    6.1     0.00000932      -938.6164300226 -5.90E-07

  *** SCF run converged in    18 steps ***


  Electronic density on regular grids:       -423.9999977415        0.0000022585
  Core density on regular grids:              423.9999999736       -0.0000000264
  Total charge density on r-space grids:        0.0000022321
  Total charge density g-space grids:           0.0000022321

  Overlap energy of the core charge distribution:               0.00000006672859
  Self energy of the core charge distribution:              -2435.54055198066590
  Core Hamiltonian energy:                                    709.02062591131460
  Hartree energy:                                            1010.96233846544681
  Exchange-correlation energy:                               -223.05884248544464

  Total energy:                                              -938.61643002262031

 ENERGY| Total FORCE_EVAL ( QS ) energy [hartree]           -938.616430644036768

 OPT| **************************************************************************
 OPT| Step number                                                             23
 OPT| Optimization method                                                  LBFGS
 OPT| Total energy [hartree]                                     -938.6164306440
 OPT| Effective energy change [hartree]                            -0.0116156094
 OPT| Decrease in energy                                                     YES
 OPT| Used time [s]                                                      117.279
 OPT|
 OPT| Maximum step size                                             0.1300464082
 OPT| Convergence limit for maximum step size                       0.0030000000
 OPT| Maximum step size is converged                                          NO
 OPT|
 OPT| RMS step size                                                 0.0286622730
 OPT| Convergence limit for RMS step size                           0.0015000000
 OPT| RMS step size is converged                                              NO
 OPT|
 OPT| Maximum gradient                                              0.0218013127
 OPT| Convergence limit for maximum gradient                        0.0010000000
 OPT| Maximum gradient is converged                                           NO
 OPT|
 OPT| RMS gradient                                                  0.0039904957
 OPT| Convergence limit for RMS gradient                            0.0003000000
 OPT| RMS gradient is converged                                               NO
 OPT| **************************************************************************
 OPT| Estimated peak process memory after this step [MiB]                   1796

 --------------------------
 OPTIMIZATION STEP:     24
 --------------------------

 Number of electrons:                                                        424
 Number of occupied orbitals:                                                212
 Number of molecular orbitals:                                               212

 Number of orbital functions:                                                326
 Number of independent orbital functions:                                    326

 Extrapolation method: ASPC


 SCF WAVEFUNCTION OPTIMIZATION

  ----------------------------------- OT ---------------------------------------
  Minimizer      : DIIS                : direct inversion
                                         in the iterative subspace
                                         using   7 DIIS vectors
                                         safer DIIS on
  Preconditioner : FULL_SINGLE_INVERSE : inversion of 
                                         H + eS - 2*(Sc)(c^T*H*c+const)(Sc)^T
  Precond_solver : DEFAULT
  stepsize       :    0.08000000                  energy_gap     :    0.08000000
  eps_taylor     :   0.10000E-15                  max_taylor     :             4
  ----------------------------------- OT ---------------------------------------

  Step     Update method      Time    Convergence         Total energy    Change
  ------------------------------------------------------------------------------
     1 OT DIIS     0.80E-01    4.9     0.00165047      -938.6118450598 -9.39E+02
     2 OT DIIS     0.80E-01    6.1     0.00123858      -938.6181073690 -6.26E-03
     3 OT DIIS     0.80E-01    6.1     0.00067559      -938.6206068248 -2.50E-03
     4 OT DIIS     0.80E-01    8.4     0.00071747      -938.6215205818 -9.14E-04
     5 OT DIIS     0.80E-01    6.2     0.00031321      -938.6222397245 -7.19E-04
     6 OT DIIS     0.80E-01    6.1     0.00019046      -938.6224678159 -2.28E-04
     7 OT DIIS     0.80E-01    6.1     0.00011977      -938.6225485542 -8.07E-05
     8 OT DIIS     0.80E-01    6.1     0.00008578      -938.6225894945 -4.09E-05
     9 OT DIIS     0.80E-01    6.1     0.00007054      -938.6226121409 -2.26E-05
    10 OT DIIS     0.80E-01    6.1     0.00005069      -938.6226308477 -1.87E-05
    11 OT DIIS     0.80E-01    6.1     0.00004179      -938.6226430870 -1.22E-05
    12 OT DIIS     0.80E-01    6.1     0.00003798      -938.6226527379 -9.65E-06
    13 OT DIIS     0.80E-01    6.1     0.00003374      -938.6226583864 -5.65E-06
    14 OT DIIS     0.80E-01    6.1     0.00002716      -938.6226639862 -5.60E-06
    15 OT DIIS     0.80E-01    6.1     0.00002251      -938.6226682130 -4.23E-06
    16 OT DIIS     0.80E-01    6.1     0.00001824      -938.6226712997 -3.09E-06
    17 OT DIIS     0.80E-01    6.1     0.00001639      -938.6226731961 -1.90E-06
    18 OT DIIS     0.80E-01    6.1     0.00001291      -938.6226745051 -1.31E-06
    19 OT DIIS     0.80E-01    6.1     0.00001080      -938.6226755339 -1.03E-06
    20 OT DIIS     0.80E-01    6.1     0.00001024      -938.6226762333 -6.99E-07
    21 OT DIIS     0.80E-01    6.1     0.00000938      -938.6226766835 -4.50E-07

  *** SCF run converged in    21 steps ***


  Electronic density on regular grids:       -423.9999978443        0.0000021557
  Core density on regular grids:              423.9999999737       -0.0000000263
  Total charge density on r-space grids:        0.0000021294
  Total charge density g-space grids:           0.0000021294

  Overlap energy of the core charge distribution:               0.00000005646053
  Self energy of the core charge distribution:              -2435.54055198066590
  Core Hamiltonian energy:                                    709.06928456654782
  Hartree energy:                                            1010.91194728271137
  Exchange-correlation energy:                               -223.06335660854253

  Total energy:                                              -938.62267668348875

 ENERGY| Total FORCE_EVAL ( QS ) energy [hartree]           -938.622677020235301

 OPT| **************************************************************************
 OPT| Step number                                                             24
 OPT| Optimization method                                                  LBFGS
 OPT| Total energy [hartree]                                     -938.6226770202
 OPT| Effective energy change [hartree]                            -0.0062463762
 OPT| Decrease in energy                                                     YES
 OPT| Used time [s]                                                      139.230
 OPT|
 OPT| Maximum step size                                             0.1755690520
 OPT| Convergence limit for maximum step size                       0.0030000000
 OPT| Maximum step size is converged                                          NO
 OPT|
 OPT| RMS step size                                                 0.0341661216
 OPT| Convergence limit for RMS step size                           0.0015000000
 OPT| RMS step size is converged                                              NO
 OPT|
 OPT| Maximum gradient                                              0.0344680679
 OPT| Convergence limit for maximum gradient                        0.0010000000
 OPT| Maximum gradient is converged                                           NO
 OPT|
 OPT| RMS gradient                                                  0.0053239002
 OPT| Convergence limit for RMS gradient                            0.0003000000
 OPT| RMS gradient is converged                                               NO
 OPT| **************************************************************************
 OPT| Estimated peak process memory after this step [MiB]                   1796

 --------------------------
 OPTIMIZATION STEP:     25
 --------------------------

 Number of electrons:                                                        424
 Number of occupied orbitals:                                                212
 Number of molecular orbitals:                                               212

 Number of orbital functions:                                                326
 Number of independent orbital functions:                                    326

 Extrapolation method: ASPC


 SCF WAVEFUNCTION OPTIMIZATION

  ----------------------------------- OT ---------------------------------------
  Minimizer      : DIIS                : direct inversion
                                         in the iterative subspace
                                         using   7 DIIS vectors
                                         safer DIIS on
  Preconditioner : FULL_SINGLE_INVERSE : inversion of 
                                         H + eS - 2*(Sc)(c^T*H*c+const)(Sc)^T
  Precond_solver : DEFAULT
  stepsize       :    0.08000000                  energy_gap     :    0.08000000
  eps_taylor     :   0.10000E-15                  max_taylor     :             4
  ----------------------------------- OT ---------------------------------------

  Step     Update method      Time    Convergence         Total energy    Change
  ------------------------------------------------------------------------------
     1 OT DIIS     0.80E-01    5.1     0.00305705      -938.5672021525 -9.39E+02
     2 OT DIIS     0.80E-01    6.1     0.00186807      -938.6009269754 -3.37E-02
     3 OT DIIS     0.80E-01    6.1     0.00168511      -938.6106479689 -9.72E-03
     4 OT DIIS     0.80E-01    6.4     0.00122297      -938.6171344782 -6.49E-03
     5 OT DIIS     0.80E-01    6.1     0.00077120      -938.6198134732 -2.68E-03
     6 OT DIIS     0.80E-01    6.1     0.00038230      -938.6208095049 -9.96E-04
     7 OT DIIS     0.80E-01    6.1     0.00029567      -938.6212067699 -3.97E-04
     8 OT DIIS     0.80E-01    6.1     0.00021376      -938.6214430495 -2.36E-04
     9 OT DIIS     0.80E-01    6.1     0.00017451      -938.6215644453 -1.21E-04
    10 OT DIIS     0.80E-01    6.1     0.00012600      -938.6216834251 -1.19E-04
    11 OT DIIS     0.80E-01    6.1     0.00011258      -938.6217809342 -9.75E-05
    12 OT DIIS     0.80E-01    6.1     0.00010282      -938.6218607308 -7.98E-05
    13 OT DIIS     0.80E-01    6.1     0.00009514      -938.6219113753 -5.06E-05
    14 OT DIIS     0.80E-01    6.1     0.00007963      -938.6219463445 -3.50E-05
    15 OT DIIS     0.80E-01    6.1     0.00006079      -938.6219882132 -4.19E-05
    16 OT DIIS     0.80E-01    6.1     0.00005498      -938.6220086628 -2.04E-05
    17 OT DIIS     0.80E-01    6.1     0.00005012      -938.6220218089 -1.31E-05
    18 OT DIIS     0.80E-01    6.1     0.00003709      -938.6220307793 -8.97E-06
    19 OT DIIS     0.80E-01    6.1     0.00002933      -938.6220383748 -7.60E-06
    20 OT DIIS     0.80E-01    6.1     0.00002814      -938.6220436931 -5.32E-06
    21 OT DIIS     0.80E-01    6.1     0.00002507      -938.6220468173 -3.12E-06
    22 OT DIIS     0.80E-01    6.1     0.00002272      -938.6220490374 -2.22E-06
    23 OT DIIS     0.80E-01    6.1     0.00001809      -938.6220515718 -2.53E-06
    24 OT DIIS     0.80E-01    6.1     0.00001727      -938.6220536580 -2.09E-06
    25 OT DIIS     0.80E-01    6.1     0.00001583      -938.6220553539 -1.70E-06
    26 OT DIIS     0.80E-01    6.1     0.00001387      -938.6220563536 -1.00E-06
    27 OT DIIS     0.80E-01    6.1     0.00001174      -938.6220575128 -1.16E-06
    28 OT DIIS     0.80E-01    6.1     0.00001083      -938.6220584919 -9.79E-07
    29 OT DIIS     0.80E-01    6.1     0.00001008      -938.6220590935 -6.02E-07
    30 OT DIIS     0.80E-01    6.1     0.00000984      -938.6220595610 -4.67E-07

  *** SCF run converged in    30 steps ***


  Electronic density on regular grids:       -423.9999980838        0.0000019162
  Core density on regular grids:              423.9999999738       -0.0000000262
  Total charge density on r-space grids:        0.0000018901
  Total charge density g-space grids:           0.0000018901

  Overlap energy of the core charge distribution:               0.00000007179724
  Self energy of the core charge distribution:              -2435.54055198066590
  Core Hamiltonian energy:                                    709.27122226451252
  Hartree energy:                                            1010.76851775207854
  Exchange-correlation energy:                               -223.12124766870608

  Total energy:                                              -938.62205956098364

 ENERGY| Total FORCE_EVAL ( QS ) energy [hartree]           -938.622059959338912

 Number of electrons:                                                        424
 Number of occupied orbitals:                                                212
 Number of molecular orbitals:                                               212

 Number of orbital functions:                                                326
 Number of independent orbital functions:                                    326

 Extrapolation method: ASPC


 SCF WAVEFUNCTION OPTIMIZATION

  ----------------------------------- OT ---------------------------------------
  Minimizer      : DIIS                : direct inversion
                                         in the iterative subspace
                                         using   7 DIIS vectors
                                         safer DIIS on
  Preconditioner : FULL_SINGLE_INVERSE : inversion of 
                                         H + eS - 2*(Sc)(c^T*H*c+const)(Sc)^T
  Precond_solver : DEFAULT
  stepsize       :    0.08000000                  energy_gap     :    0.08000000
  eps_taylor     :   0.10000E-15                  max_taylor     :             4
  ----------------------------------- OT ---------------------------------------

  Step     Update method      Time    Convergence         Total energy    Change
  ------------------------------------------------------------------------------
     1 OT DIIS     0.80E-01    4.9     0.00572382      -938.4869543503 -9.38E+02
     2 OT DIIS     0.80E-01    6.1     0.00446296      -938.5625593122 -7.56E-02
     3 OT DIIS     0.80E-01    6.1     0.00221646      -938.6008627571 -3.83E-02
     4 OT DIIS     0.80E-01    6.1     0.00229518      -938.6159643774 -1.51E-02
     5 OT DIIS     0.80E-01    6.1     0.00122052      -938.6235047509 -7.54E-03
     6 OT DIIS     0.80E-01    6.1     0.00052235      -938.6260967002 -2.59E-03
     7 OT DIIS     0.80E-01    6.1     0.00033577      -938.6267264222 -6.30E-04
     8 OT DIIS     0.80E-01    6.1     0.00020942      -938.6270063110 -2.80E-04
     9 OT DIIS     0.80E-01    6.1     0.00017481      -938.6271263997 -1.20E-04
    10 OT DIIS     0.80E-01    6.1     0.00013032      -938.6272413538 -1.15E-04
    11 OT DIIS     0.80E-01    6.1     0.00010231      -938.6273354254 -9.41E-05
    12 OT DIIS     0.80E-01    6.1     0.00009461      -938.6274158666 -8.04E-05
    13 OT DIIS     0.80E-01    6.1     0.00008851      -938.6274854957 -6.96E-05
    14 OT DIIS     0.80E-01    6.1     0.00008615      -938.6275284091 -4.29E-05
    15 OT DIIS     0.80E-01    6.1     0.00006161      -938.6275751498 -4.67E-05
    16 OT DIIS     0.80E-01    6.1     0.00005293      -938.6275997615 -2.46E-05
    17 OT DIIS     0.80E-01    6.1     0.00004356      -938.6276234219 -2.37E-05
    18 OT DIIS     0.80E-01    6.1     0.00003765      -938.6276367029 -1.33E-05
    19 OT DIIS     0.80E-01    6.1     0.00003100      -938.6276453267 -8.62E-06
    20 OT DIIS     0.80E-01    6.1     0.00002544      -938.6276514026 -6.08E-06
    21 OT DIIS     0.80E-01    6.1     0.00002215      -938.6276549082 -3.51E-06
    22 OT DIIS     0.80E-01    6.1     0.00002166      -938.6276576675 -2.76E-06
    23 OT DIIS     0.80E-01    6.1     0.00001731      -938.6276593606 -1.69E-06
    24 OT DIIS     0.80E-01    6.1     0.00001508      -938.6276609676 -1.61E-06
    25 OT DIIS     0.80E-01    6.1     0.00001296      -938.6276622026 -1.23E-06
    26 OT DIIS     0.80E-01    6.1     0.00001161      -938.6276629576 -7.55E-07
    27 OT DIIS     0.80E-01    6.1     0.00001002      -938.6276637091 -7.52E-07
    28 OT DIIS     0.80E-01    6.1     0.00000914      -938.6276641652 -4.56E-07

  *** SCF run converged in    28 steps ***


  Electronic density on regular grids:       -423.9999976816        0.0000023184
  Core density on regular grids:              423.9999999738       -0.0000000262
  Total charge density on r-space grids:        0.0000022922
  Total charge density g-space grids:           0.0000022922

  Overlap energy of the core charge distribution:               0.00000006268565
  Self energy of the core charge distribution:              -2435.54055198066590
  Core Hamiltonian energy:                                    709.16738631924886
  Hartree energy:                                            1010.83905062030965
  Exchange-correlation energy:                               -223.09354918679469

  Total energy:                                              -938.62766416521652

 ENERGY| Total FORCE_EVAL ( QS ) energy [hartree]           -938.627664589060487

 OPT| **************************************************************************
 OPT| Step number                                                             25
 OPT| Optimization method                                                  LBFGS
 OPT| Total energy [hartree]                                     -938.6276645891
 OPT| Effective energy change [hartree]                            -0.0049875688
 OPT| Decrease in energy                                                     YES
 OPT| Used time [s]                                                      369.767
 OPT|
 OPT| Maximum step size                                             0.1171730112
 OPT| Convergence limit for maximum step size                       0.0030000000
 OPT| Maximum step size is converged                                          NO
 OPT|
 OPT| RMS step size                                                 0.0188278129
 OPT| Convergence limit for RMS step size                           0.0015000000
 OPT| RMS step size is converged                                              NO
 OPT|
 OPT| Maximum gradient                                              0.0279570535
 OPT| Convergence limit for maximum gradient                        0.0010000000
 OPT| Maximum gradient is converged                                           NO
 OPT|
 OPT| RMS gradient                                                  0.0045322031
 OPT| Convergence limit for RMS gradient                            0.0003000000
 OPT| RMS gradient is converged                                               NO
 OPT| **************************************************************************
 OPT| Estimated peak process memory after this step [MiB]                   1796

 --------------------------
 OPTIMIZATION STEP:     26
 --------------------------

 Number of electrons:                                                        424
 Number of occupied orbitals:                                                212
 Number of molecular orbitals:                                               212

 Number of orbital functions:                                                326
 Number of independent orbital functions:                                    326

 Extrapolation method: ASPC


 SCF WAVEFUNCTION OPTIMIZATION

  ----------------------------------- OT ---------------------------------------
  Minimizer      : DIIS                : direct inversion
                                         in the iterative subspace
                                         using   7 DIIS vectors
                                         safer DIIS on
  Preconditioner : FULL_SINGLE_INVERSE : inversion of 
                                         H + eS - 2*(Sc)(c^T*H*c+const)(Sc)^T
  Precond_solver : DEFAULT
  stepsize       :    0.08000000                  energy_gap     :    0.08000000
  eps_taylor     :   0.10000E-15                  max_taylor     :             4
  ----------------------------------- OT ---------------------------------------

  Step     Update method      Time    Convergence         Total energy    Change
  ------------------------------------------------------------------------------
     1 OT DIIS     0.80E-01    4.9     0.00442130      -938.5274980645 -9.39E+02
     2 OT DIIS     0.80E-01    6.1     0.00281640      -938.5936623528 -6.62E-02
     3 OT DIIS     0.80E-01    6.1     0.00233791      -938.6116684503 -1.80E-02
     4 OT DIIS     0.80E-01    6.1     0.00162580      -938.6248592995 -1.32E-02
     5 OT DIIS     0.80E-01    6.1     0.00102748      -938.6296676634 -4.81E-03
     6 OT DIIS     0.80E-01    6.1     0.00044661      -938.6314042081 -1.74E-03
     7 OT DIIS     0.80E-01    6.1     0.00034100      -938.6319458871 -5.42E-04
     8 OT DIIS     0.80E-01    6.1     0.00021866      -938.6321825540 -2.37E-04
     9 OT DIIS     0.80E-01    6.1     0.00017013      -938.6322781288 -9.56E-05
    10 OT DIIS     0.80E-01    6.1     0.00011411      -938.6323457156 -6.76E-05
    11 OT DIIS     0.80E-01    6.1     0.00008871      -938.6323877410 -4.20E-05
    12 OT DIIS     0.80E-01    6.1     0.00007716      -938.6324228537 -3.51E-05
    13 OT DIIS     0.80E-01    6.1     0.00006995      -938.6324488461 -2.60E-05
    14 OT DIIS     0.80E-01    6.1     0.00005847      -938.6324668795 -1.80E-05
    15 OT DIIS     0.80E-01    6.1     0.00004803      -938.6324906937 -2.38E-05
    16 OT DIIS     0.80E-01    6.1     0.00004257      -938.6325054014 -1.47E-05
    17 OT DIIS     0.80E-01    6.1     0.00003882      -938.6325167667 -1.14E-05
    18 OT DIIS     0.80E-01    6.1     0.00003290      -938.6325232942 -6.53E-06
    19 OT DIIS     0.80E-01    6.1     0.00002571      -938.6325293914 -6.10E-06
    20 OT DIIS     0.80E-01    6.1     0.00002242      -938.6325336015 -4.21E-06
    21 OT DIIS     0.80E-01    6.1     0.00002057      -938.6325359148 -2.31E-06
    22 OT DIIS     0.80E-01    6.1     0.00001773      -938.6325374030 -1.49E-06
    23 OT DIIS     0.80E-01    6.1     0.00001429      -938.6325389887 -1.59E-06
    24 OT DIIS     0.80E-01    6.1     0.00001317      -938.6325401561 -1.17E-06
    25 OT DIIS     0.80E-01    6.1     0.00001213      -938.6325412464 -1.09E-06
    26 OT DIIS     0.80E-01    6.1     0.00001134      -938.6325418758 -6.29E-07
    27 OT DIIS     0.80E-01    6.1     0.00000957      -938.6325425841 -7.08E-07

  *** SCF run converged in    27 steps ***


  Electronic density on regular grids:       -423.9999973082        0.0000026918
  Core density on regular grids:              423.9999999740       -0.0000000260
  Total charge density on r-space grids:        0.0000026658
  Total charge density g-space grids:           0.0000026658

  Overlap energy of the core charge distribution:               0.00000006553963
  Self energy of the core charge distribution:              -2435.54055198066590
  Core Hamiltonian energy:                                    709.31937490496318
  Hartree energy:                                            1010.72456287242733
  Exchange-correlation energy:                               -223.13592844632632

  Total energy:                                              -938.63254258406209

 ENERGY| Total FORCE_EVAL ( QS ) energy [hartree]           -938.632543254228949

 OPT| **************************************************************************
 OPT| Step number                                                             26
 OPT| Optimization method                                                  LBFGS
 OPT| Total energy [hartree]                                     -938.6325432542
 OPT| Effective energy change [hartree]                            -0.0048786652
 OPT| Decrease in energy                                                     YES
 OPT| Used time [s]                                                      172.398
 OPT|
 OPT| Maximum step size                                             0.0793209154
 OPT| Convergence limit for maximum step size                       0.0030000000
 OPT| Maximum step size is converged                                          NO
 OPT|
 OPT| RMS step size                                                 0.0203614530
 OPT| Convergence limit for RMS step size                           0.0015000000
 OPT| RMS step size is converged                                              NO
 OPT|
 OPT| Maximum gradient                                              0.0295735432
 OPT| Convergence limit for maximum gradient                        0.0010000000
 OPT| Maximum gradient is converged                                           NO
 OPT|
 OPT| RMS gradient                                                  0.0049060886
 OPT| Convergence limit for RMS gradient                            0.0003000000
 OPT| RMS gradient is converged                                               NO
 OPT| **************************************************************************
 OPT| Estimated peak process memory after this step [MiB]                   1796

 --------------------------
 OPTIMIZATION STEP:     27
 --------------------------

 Number of electrons:                                                        424
 Number of occupied orbitals:                                                212
 Number of molecular orbitals:                                               212

 Number of orbital functions:                                                326
 Number of independent orbital functions:                                    326

 Extrapolation method: ASPC


 SCF WAVEFUNCTION OPTIMIZATION

  ----------------------------------- OT ---------------------------------------
  Minimizer      : DIIS                : direct inversion
                                         in the iterative subspace
                                         using   7 DIIS vectors
                                         safer DIIS on
  Preconditioner : FULL_SINGLE_INVERSE : inversion of 
                                         H + eS - 2*(Sc)(c^T*H*c+const)(Sc)^T
  Precond_solver : DEFAULT
  stepsize       :    0.08000000                  energy_gap     :    0.08000000
  eps_taylor     :   0.10000E-15                  max_taylor     :             4
  ----------------------------------- OT ---------------------------------------

  Step     Update method      Time    Convergence         Total energy    Change
  ------------------------------------------------------------------------------
     1 OT DIIS     0.80E-01    4.9     0.00316018      -938.5877663505 -9.39E+02
     2 OT DIIS     0.80E-01    6.1     0.00224256      -938.6184725510 -3.07E-02
     3 OT DIIS     0.80E-01    6.1     0.00196507      -938.6262637791 -7.79E-03
     4 OT DIIS     0.80E-01    6.1     0.00164137      -938.6315936251 -5.33E-03
     5 OT DIIS     0.80E-01    6.1     0.00059757      -938.6352878897 -3.69E-03
     6 OT DIIS     0.80E-01    6.1     0.00044160      -938.6360701803 -7.82E-04
     7 OT DIIS     0.80E-01    6.1     0.00026250      -938.6363624197 -2.92E-04
     8 OT DIIS     0.80E-01    6.1     0.00015358      -938.6364933217 -1.31E-04
     9 OT DIIS     0.80E-01    6.1     0.00011717      -938.6365412046 -4.79E-05
    10 OT DIIS     0.80E-01    6.1     0.00007299      -938.6365707158 -2.95E-05
    11 OT DIIS     0.80E-01    6.1     0.00005952      -938.6365891348 -1.84E-05
    12 OT DIIS     0.80E-01    6.1     0.00005448      -938.6366005822 -1.14E-05
    13 OT DIIS     0.80E-01    6.1     0.00004357      -938.6366084577 -7.88E-06
    14 OT DIIS     0.80E-01    6.1     0.00003550      -938.6366159875 -7.53E-06
    15 OT DIIS     0.80E-01    6.1     0.00002988      -938.6366218123 -5.82E-06
    16 OT DIIS     0.80E-01    6.1     0.00002417      -938.6366263556 -4.54E-06
    17 OT DIIS     0.80E-01    6.1     0.00002082      -938.6366293466 -2.99E-06
    18 OT DIIS     0.80E-01    6.1     0.00001622      -938.6366309296 -1.58E-06
    19 OT DIIS     0.80E-01    6.1     0.00001257      -938.6366322774 -1.35E-06
    20 OT DIIS     0.80E-01    6.1     0.00001226      -938.6366329896 -7.12E-07
    21 OT DIIS     0.80E-01    6.1     0.00001030      -938.6366334275 -4.38E-07
    22 OT DIIS     0.80E-01    6.1     0.00000862      -938.6366337855 -3.58E-07

  *** SCF run converged in    22 steps ***


  Electronic density on regular grids:       -423.9999969458        0.0000030542
  Core density on regular grids:              423.9999999739       -0.0000000261
  Total charge density on r-space grids:        0.0000030281
  Total charge density g-space grids:           0.0000030281

  Overlap energy of the core charge distribution:               0.00000006382459
  Self energy of the core charge distribution:              -2435.54055198066590
  Core Hamiltonian energy:                                    709.27156221116945
  Hartree energy:                                            1010.75820902596774
  Exchange-correlation energy:                               -223.12585310581659

  Total energy:                                              -938.63663378552042

 ENERGY| Total FORCE_EVAL ( QS ) energy [hartree]           -938.636634061234645

 OPT| **************************************************************************
 OPT| Step number                                                             27
 OPT| Optimization method                                                  LBFGS
 OPT| Total energy [hartree]                                     -938.6366340612
 OPT| Effective energy change [hartree]                            -0.0040908070
 OPT| Decrease in energy                                                     YES
 OPT| Used time [s]                                                      141.691
 OPT|
 OPT| Maximum step size                                             0.0358608236
 OPT| Convergence limit for maximum step size                       0.0030000000
 OPT| Maximum step size is converged                                          NO
 OPT|
 OPT| RMS step size                                                 0.0071997891
 OPT| Convergence limit for RMS step size                           0.0015000000
 OPT| RMS step size is converged                                              NO
 OPT|
 OPT| Maximum gradient                                              0.0154326111
 OPT| Convergence limit for maximum gradient                        0.0010000000
 OPT| Maximum gradient is converged                                           NO
 OPT|
 OPT| RMS gradient                                                  0.0025620499
 OPT| Convergence limit for RMS gradient                            0.0003000000
 OPT| RMS gradient is converged                                               NO
 OPT| **************************************************************************
 OPT| Estimated peak process memory after this step [MiB]                   1796

 --------------------------
 OPTIMIZATION STEP:     28
 --------------------------

 Number of electrons:                                                        424
 Number of occupied orbitals:                                                212
 Number of molecular orbitals:                                               212

 Number of orbital functions:                                                326
 Number of independent orbital functions:                                    326

 Extrapolation method: ASPC


 SCF WAVEFUNCTION OPTIMIZATION

  ----------------------------------- OT ---------------------------------------
  Minimizer      : DIIS                : direct inversion
                                         in the iterative subspace
                                         using   7 DIIS vectors
                                         safer DIIS on
  Preconditioner : FULL_SINGLE_INVERSE : inversion of 
                                         H + eS - 2*(Sc)(c^T*H*c+const)(Sc)^T
  Precond_solver : DEFAULT
  stepsize       :    0.08000000                  energy_gap     :    0.08000000
  eps_taylor     :   0.10000E-15                  max_taylor     :             4
  ----------------------------------- OT ---------------------------------------

  Step     Update method      Time    Convergence         Total energy    Change
  ------------------------------------------------------------------------------
     1 OT DIIS     0.80E-01    4.9     0.00209985      -938.6155923894 -9.39E+02
     2 OT DIIS     0.80E-01    6.1     0.00138864      -938.6308375130 -1.52E-02
     3 OT DIIS     0.80E-01    6.1     0.00123795      -938.6347577630 -3.92E-03
     4 OT DIIS     0.80E-01    6.1     0.00072511      -938.6382633106 -3.51E-03
     5 OT DIIS     0.80E-01    6.1     0.00052912      -938.6392766420 -1.01E-03
     6 OT DIIS     0.80E-01    6.1     0.00028433      -938.6397247901 -4.48E-04
     7 OT DIIS     0.80E-01    6.1     0.00020841      -938.6398644834 -1.40E-04
     8 OT DIIS     0.80E-01    6.1     0.00010503      -938.6399418169 -7.73E-05
     9 OT DIIS     0.80E-01    6.1     0.00009055      -938.6399689838 -2.72E-05
    10 OT DIIS     0.80E-01    6.1     0.00005641      -938.6399858311 -1.68E-05
    11 OT DIIS     0.80E-01    6.1     0.00004558      -938.6399965846 -1.08E-05
    12 OT DIIS     0.80E-01    6.1     0.00003681      -938.6400044925 -7.91E-06
    13 OT DIIS     0.80E-01    6.1     0.00003322      -938.6400102230 -5.73E-06
    14 OT DIIS     0.80E-01    6.1     0.00002889      -938.6400147729 -4.55E-06
    15 OT DIIS     0.80E-01    6.1     0.00002499      -938.6400187796 -4.01E-06
    16 OT DIIS     0.80E-01    6.1     0.00002000      -938.6400216851 -2.91E-06
    17 OT DIIS     0.80E-01    6.1     0.00001647      -938.6400246019 -2.92E-06
    18 OT DIIS     0.80E-01    6.1     0.00001511      -938.6400257669 -1.16E-06
    19 OT DIIS     0.80E-01    6.1     0.00001140      -938.6400269487 -1.18E-06
    20 OT DIIS     0.80E-01    6.1     0.00000973      -938.6400276079 -6.59E-07

  *** SCF run converged in    20 steps ***


  Electronic density on regular grids:       -423.9999965862        0.0000034138
  Core density on regular grids:              423.9999999739       -0.0000000261
  Total charge density on r-space grids:        0.0000033877
  Total charge density g-space grids:           0.0000033877

  Overlap energy of the core charge distribution:               0.00000006436720
  Self energy of the core charge distribution:              -2435.54055198066590
  Core Hamiltonian energy:                                    709.31956981782298
  Hartree energy:                                            1010.71830710060385
  Exchange-correlation energy:                               -223.13735260999096

  Total energy:                                              -938.64002760786298

 ENERGY| Total FORCE_EVAL ( QS ) energy [hartree]           -938.640028057716336

 OPT| **************************************************************************
 OPT| Step number                                                             28
 OPT| Optimization method                                                  LBFGS
 OPT| Total energy [hartree]                                     -938.6400280577
 OPT| Effective energy change [hartree]                            -0.0033939965
 OPT| Decrease in energy                                                     YES
 OPT| Used time [s]                                                      129.522
 OPT|
 OPT| Maximum step size                                             0.0367547779
 OPT| Convergence limit for maximum step size                       0.0030000000
 OPT| Maximum step size is converged                                          NO
 OPT|
 OPT| RMS step size                                                 0.0107087495
 OPT| Convergence limit for RMS step size                           0.0015000000
 OPT| RMS step size is converged                                              NO
 OPT|
 OPT| Maximum gradient                                              0.0076595373
 OPT| Convergence limit for maximum gradient                        0.0010000000
 OPT| Maximum gradient is converged                                           NO
 OPT|
 OPT| RMS gradient                                                  0.0020198787
 OPT| Convergence limit for RMS gradient                            0.0003000000
 OPT| RMS gradient is converged                                               NO
 OPT| **************************************************************************
 OPT| Estimated peak process memory after this step [MiB]                   1796

 --------------------------
 OPTIMIZATION STEP:     29
 --------------------------

 Number of electrons:                                                        424
 Number of occupied orbitals:                                                212
 Number of molecular orbitals:                                               212

 Number of orbital functions:                                                326
 Number of independent orbital functions:                                    326

 Extrapolation method: ASPC


 SCF WAVEFUNCTION OPTIMIZATION

  ----------------------------------- OT ---------------------------------------
  Minimizer      : DIIS                : direct inversion
                                         in the iterative subspace
                                         using   7 DIIS vectors
                                         safer DIIS on
  Preconditioner : FULL_SINGLE_INVERSE : inversion of 
                                         H + eS - 2*(Sc)(c^T*H*c+const)(Sc)^T
  Precond_solver : DEFAULT
  stepsize       :    0.08000000                  energy_gap     :    0.08000000
  eps_taylor     :   0.10000E-15                  max_taylor     :             4
  ----------------------------------- OT ---------------------------------------

  Step     Update method      Time    Convergence         Total energy    Change
  ------------------------------------------------------------------------------
     1 OT DIIS     0.80E-01    4.8     0.00120103      -938.6339588795 -9.39E+02
     2 OT DIIS     0.80E-01    6.1     0.00080838      -938.6389850461 -5.03E-03
     3 OT DIIS     0.80E-01    6.1     0.00068744      -938.6403755607 -1.39E-03
     4 OT DIIS     0.80E-01    6.1     0.00049967      -938.6415136396 -1.14E-03
     5 OT DIIS     0.80E-01    6.1     0.00027328      -938.6418692959 -3.56E-04
     6 OT DIIS     0.80E-01    6.1     0.00013748      -938.6420048592 -1.36E-04
     7 OT DIIS     0.80E-01    6.1     0.00009208      -938.6420500370 -4.52E-05
     8 OT DIIS     0.80E-01    6.1     0.00005736      -938.6420699535 -1.99E-05
     9 OT DIIS     0.80E-01    6.1     0.00004548      -938.6420786969 -8.74E-06
    10 OT DIIS     0.80E-01    6.1     0.00003120      -938.6420836837 -4.99E-06
    11 OT DIIS     0.80E-01    6.1     0.00002488      -938.6420876079 -3.92E-06
    12 OT DIIS     0.80E-01    6.1     0.00002181      -938.6420906426 -3.03E-06
    13 OT DIIS     0.80E-01    6.1     0.00002094      -938.6420925486 -1.91E-06
    14 OT DIIS     0.80E-01    6.1     0.00001567      -938.6420941461 -1.60E-06
    15 OT DIIS     0.80E-01    6.1     0.00001205      -938.6420954646 -1.32E-06
    16 OT DIIS     0.80E-01    6.1     0.00000982      -938.6420962343 -7.70E-07

  *** SCF run converged in    16 steps ***


  Electronic density on regular grids:       -423.9999962508        0.0000037492
  Core density on regular grids:              423.9999999739       -0.0000000261
  Total charge density on r-space grids:        0.0000037231
  Total charge density g-space grids:           0.0000037231

  Overlap energy of the core charge distribution:               0.00000006331965
  Self energy of the core charge distribution:              -2435.54055198066590
  Core Hamiltonian energy:                                    709.30942771722744
  Hartree energy:                                            1010.72203246944161
  Exchange-correlation energy:                               -223.13300450363110

  Total energy:                                              -938.64209623430850

 ENERGY| Total FORCE_EVAL ( QS ) energy [hartree]           -938.642096746558309

 OPT| **************************************************************************
 OPT| Step number                                                             29
 OPT| Optimization method                                                  LBFGS
 OPT| Total energy [hartree]                                     -938.6420967466
 OPT| Effective energy change [hartree]                            -0.0020686888
 OPT| Decrease in energy                                                     YES
 OPT| Used time [s]                                                      105.123
 OPT|
 OPT| Maximum step size                                             0.0365019799
 OPT| Convergence limit for maximum step size                       0.0030000000
 OPT| Maximum step size is converged                                          NO
 OPT|
 OPT| RMS step size                                                 0.0092953079
 OPT| Convergence limit for RMS step size                           0.0015000000
 OPT| RMS step size is converged                                              NO
 OPT|
 OPT| Maximum gradient                                              0.0072273054
 OPT| Convergence limit for maximum gradient                        0.0010000000
 OPT| Maximum gradient is converged                                           NO
 OPT|
 OPT| RMS gradient                                                  0.0019069826
 OPT| Convergence limit for RMS gradient                            0.0003000000
 OPT| RMS gradient is converged                                               NO
 OPT| **************************************************************************
 OPT| Estimated peak process memory after this step [MiB]                   1796

 --------------------------
 OPTIMIZATION STEP:     30
 --------------------------

 Number of electrons:                                                        424
 Number of occupied orbitals:                                                212
 Number of molecular orbitals:                                               212

 Number of orbital functions:                                                326
 Number of independent orbital functions:                                    326

 Extrapolation method: ASPC


 SCF WAVEFUNCTION OPTIMIZATION

  ----------------------------------- OT ---------------------------------------
  Minimizer      : DIIS                : direct inversion
                                         in the iterative subspace
                                         using   7 DIIS vectors
                                         safer DIIS on
  Preconditioner : FULL_SINGLE_INVERSE : inversion of 
                                         H + eS - 2*(Sc)(c^T*H*c+const)(Sc)^T
  Precond_solver : DEFAULT
  stepsize       :    0.08000000                  energy_gap     :    0.08000000
  eps_taylor     :   0.10000E-15                  max_taylor     :             4
  ----------------------------------- OT ---------------------------------------

  Step     Update method      Time    Convergence         Total energy    Change
  ------------------------------------------------------------------------------
     1 OT DIIS     0.80E-01    4.9     0.00058792      -938.6425514078 -9.39E+02
     2 OT DIIS     0.80E-01    6.1     0.00036426      -938.6437835493 -1.23E-03
     3 OT DIIS     0.80E-01    6.1     0.00034148      -938.6441033566 -3.20E-04
     4 OT DIIS     0.80E-01    6.1     0.00022457      -938.6443428940 -2.40E-04
     5 OT DIIS     0.80E-01    6.1     0.00012922      -938.6444317080 -8.88E-05
     6 OT DIIS     0.80E-01    6.1     0.00007314      -938.6444618115 -3.01E-05
     7 OT DIIS     0.80E-01    6.1     0.00004816      -938.6444721090 -1.03E-05
     8 OT DIIS     0.80E-01    6.1     0.00002998      -938.6444765888 -4.48E-06
     9 OT DIIS     0.80E-01    6.1     0.00002343      -938.6444783187 -1.73E-06
    10 OT DIIS     0.80E-01    6.1     0.00001509      -938.6444793689 -1.05E-06
    11 OT DIIS     0.80E-01    6.1     0.00001122      -938.6444800447 -6.76E-07
    12 OT DIIS     0.80E-01    6.1     0.00000947      -938.6444805398 -4.95E-07

  *** SCF run converged in    12 steps ***


  Electronic density on regular grids:       -423.9999957978        0.0000042022
  Core density on regular grids:              423.9999999740       -0.0000000260
  Total charge density on r-space grids:        0.0000041762
  Total charge density g-space grids:           0.0000041762

  Overlap energy of the core charge distribution:               0.00000006479307
  Self energy of the core charge distribution:              -2435.54055198066590
  Core Hamiltonian energy:                                    709.24720991872459
  Hartree energy:                                            1010.76820729121994
  Exchange-correlation energy:                               -223.11934583391530

  Total energy:                                              -938.64448053984381

 ENERGY| Total FORCE_EVAL ( QS ) energy [hartree]           -938.644480888962903

 OPT| **************************************************************************
 OPT| Step number                                                             30
 OPT| Optimization method                                                  LBFGS
 OPT| Total energy [hartree]                                     -938.6444808890
 OPT| Effective energy change [hartree]                            -0.0023841424
 OPT| Decrease in energy                                                     YES
 OPT| Used time [s]                                                       80.788
 OPT|
 OPT| Maximum step size                                             0.0519148414
 OPT| Convergence limit for maximum step size                       0.0030000000
 OPT| Maximum step size is converged                                          NO
 OPT|
 OPT| RMS step size                                                 0.0124321523
 OPT| Convergence limit for RMS step size                           0.0015000000
 OPT| RMS step size is converged                                              NO
 OPT|
 OPT| Maximum gradient                                              0.0076096966
 OPT| Convergence limit for maximum gradient                        0.0010000000
 OPT| Maximum gradient is converged                                           NO
 OPT|
 OPT| RMS gradient                                                  0.0021030140
 OPT| Convergence limit for RMS gradient                            0.0003000000
 OPT| RMS gradient is converged                                               NO
 OPT| **************************************************************************
 OPT| Estimated peak process memory after this step [MiB]                   1796

 --------------------------
 OPTIMIZATION STEP:     31
 --------------------------

 Number of electrons:                                                        424
 Number of occupied orbitals:                                                212
 Number of molecular orbitals:                                               212

 Number of orbital functions:                                                326
 Number of independent orbital functions:                                    326

 Extrapolation method: ASPC


 SCF WAVEFUNCTION OPTIMIZATION

  ----------------------------------- OT ---------------------------------------
  Minimizer      : DIIS                : direct inversion
                                         in the iterative subspace
                                         using   7 DIIS vectors
                                         safer DIIS on
  Preconditioner : FULL_SINGLE_INVERSE : inversion of 
                                         H + eS - 2*(Sc)(c^T*H*c+const)(Sc)^T
  Precond_solver : DEFAULT
  stepsize       :    0.08000000                  energy_gap     :    0.08000000
  eps_taylor     :   0.10000E-15                  max_taylor     :             4
  ----------------------------------- OT ---------------------------------------

  Step     Update method      Time    Convergence         Total energy    Change
  ------------------------------------------------------------------------------
     1 OT DIIS     0.80E-01    4.9     0.00042962      -938.6461994362 -9.39E+02
     2 OT DIIS     0.80E-01    6.1     0.00025857      -938.6467402760 -5.41E-04
     3 OT DIIS     0.80E-01    6.1     0.00022842      -938.6468456119 -1.05E-04
     4 OT DIIS     0.80E-01    6.1     0.00016766      -938.6469116059 -6.60E-05
     5 OT DIIS     0.80E-01    6.1     0.00007402      -938.6469508869 -3.93E-05
     6 OT DIIS     0.80E-01    6.1     0.00005280      -938.6469622937 -1.14E-05
     7 OT DIIS     0.80E-01    6.1     0.00003283      -938.6469667451 -4.45E-06
     8 OT DIIS     0.80E-01    6.1     0.00002086      -938.6469689474 -2.20E-06
     9 OT DIIS     0.80E-01    6.1     0.00001642      -938.6469700099 -1.06E-06
    10 OT DIIS     0.80E-01    6.1     0.00001210      -938.6469708639 -8.54E-07
    11 OT DIIS     0.80E-01    6.1     0.00001071      -938.6469715732 -7.09E-07
    12 OT DIIS     0.80E-01    6.1     0.00000980      -938.6469721783 -6.05E-07

  *** SCF run converged in    12 steps ***


  Electronic density on regular grids:       -423.9999957665        0.0000042335
  Core density on regular grids:              423.9999999739       -0.0000000261
  Total charge density on r-space grids:        0.0000042074
  Total charge density g-space grids:           0.0000042074

  Overlap energy of the core charge distribution:               0.00000005941083
  Self energy of the core charge distribution:              -2435.54055198066590
  Core Hamiltonian energy:                                    709.16430883987744
  Hartree energy:                                            1010.82450929159893
  Exchange-correlation energy:                               -223.09523838852914

  Total energy:                                              -938.64697217830781

 ENERGY| Total FORCE_EVAL ( QS ) energy [hartree]           -938.646972615931872

 OPT| **************************************************************************
 OPT| Step number                                                             31
 OPT| Optimization method                                                  LBFGS
 OPT| Total energy [hartree]                                     -938.6469726159
 OPT| Effective energy change [hartree]                            -0.0024917270
 OPT| Decrease in energy                                                     YES
 OPT| Used time [s]                                                       80.738
 OPT|
 OPT| Maximum step size                                             0.0847809618
 OPT| Convergence limit for maximum step size                       0.0030000000
 OPT| Maximum step size is converged                                          NO
 OPT|
 OPT| RMS step size                                                 0.0191637237
 OPT| Convergence limit for RMS step size                           0.0015000000
 OPT| RMS step size is converged                                              NO
 OPT|
 OPT| Maximum gradient                                              0.0097915983
 OPT| Convergence limit for maximum gradient                        0.0010000000
 OPT| Maximum gradient is converged                                           NO
 OPT|
 OPT| RMS gradient                                                  0.0022306153
 OPT| Convergence limit for RMS gradient                            0.0003000000
 OPT| RMS gradient is converged                                               NO
 OPT| **************************************************************************
 OPT| Estimated peak process memory after this step [MiB]                   1796

 --------------------------
 OPTIMIZATION STEP:     32
 --------------------------

 Number of electrons:                                                        424
 Number of occupied orbitals:                                                212
 Number of molecular orbitals:                                               212

 Number of orbital functions:                                                326
 Number of independent orbital functions:                                    326

 Extrapolation method: ASPC


 SCF WAVEFUNCTION OPTIMIZATION

  ----------------------------------- OT ---------------------------------------
  Minimizer      : DIIS                : direct inversion
                                         in the iterative subspace
                                         using   7 DIIS vectors
                                         safer DIIS on
  Preconditioner : FULL_SINGLE_INVERSE : inversion of 
                                         H + eS - 2*(Sc)(c^T*H*c+const)(Sc)^T
  Precond_solver : DEFAULT
  stepsize       :    0.08000000                  energy_gap     :    0.08000000
  eps_taylor     :   0.10000E-15                  max_taylor     :             4
  ----------------------------------- OT ---------------------------------------

  Step     Update method      Time    Convergence         Total energy    Change
  ------------------------------------------------------------------------------
     1 OT DIIS     0.80E-01    4.8     0.00068996      -938.6469240075 -9.39E+02
     2 OT DIIS     0.80E-01    6.1     0.00042486      -938.6485599812 -1.64E-03
     3 OT DIIS     0.80E-01    6.1     0.00043284      -938.6489188222 -3.59E-04
     4 OT DIIS     0.80E-01    6.1     0.00028221      -938.6492114547 -2.93E-04
     5 OT DIIS     0.80E-01    6.1     0.00015492      -938.6493341333 -1.23E-04
     6 OT DIIS     0.80E-01    6.1     0.00009368      -938.6493782831 -4.41E-05
     7 OT DIIS     0.80E-01    6.1     0.00005967      -938.6493928243 -1.45E-05
     8 OT DIIS     0.80E-01    6.1     0.00003449      -938.6493999208 -7.10E-06
     9 OT DIIS     0.80E-01    6.1     0.00002806      -938.6494026911 -2.77E-06
    10 OT DIIS     0.80E-01    6.1     0.00001737      -938.6494045131 -1.82E-06
    11 OT DIIS     0.80E-01    6.1     0.00001504      -938.6494056708 -1.16E-06
    12 OT DIIS     0.80E-01    6.1     0.00001235      -938.6494064338 -7.63E-07
    13 OT DIIS     0.80E-01    6.1     0.00001094      -938.6494069518 -5.18E-07
    14 OT DIIS     0.80E-01    6.1     0.00000879      -938.6494074381 -4.86E-07

  *** SCF run converged in    14 steps ***


  Electronic density on regular grids:       -423.9999959278        0.0000040722
  Core density on regular grids:              423.9999999739       -0.0000000261
  Total charge density on r-space grids:        0.0000040461
  Total charge density g-space grids:           0.0000040461

  Overlap energy of the core charge distribution:               0.00000006143257
  Self energy of the core charge distribution:              -2435.54055198066590
  Core Hamiltonian energy:                                    709.16930539928637
  Hartree energy:                                            1010.82156350483990
  Exchange-correlation energy:                               -223.09972442295526

  Total energy:                                              -938.64940743806233

 ENERGY| Total FORCE_EVAL ( QS ) energy [hartree]           -938.649407815950212

 OPT| **************************************************************************
 OPT| Step number                                                             32
 OPT| Optimization method                                                  LBFGS
 OPT| Total energy [hartree]                                     -938.6494078160
 OPT| Effective energy change [hartree]                            -0.0024352000
 OPT| Decrease in energy                                                     YES
 OPT| Used time [s]                                                       92.835
 OPT|
 OPT| Maximum step size                                             0.0493081167
 OPT| Convergence limit for maximum step size                       0.0030000000
 OPT| Maximum step size is converged                                          NO
 OPT|
 OPT| RMS step size                                                 0.0105364984
 OPT| Convergence limit for RMS step size                           0.0015000000
 OPT| RMS step size is converged                                              NO
 OPT|
 OPT| Maximum gradient                                              0.0085092698
 OPT| Convergence limit for maximum gradient                        0.0010000000
 OPT| Maximum gradient is converged                                           NO
 OPT|
 OPT| RMS gradient                                                  0.0019523144
 OPT| Convergence limit for RMS gradient                            0.0003000000
 OPT| RMS gradient is converged                                               NO
 OPT| **************************************************************************
 OPT| Estimated peak process memory after this step [MiB]                   1796

 --------------------------
 OPTIMIZATION STEP:     33
 --------------------------

 Number of electrons:                                                        424
 Number of occupied orbitals:                                                212
 Number of molecular orbitals:                                               212

 Number of orbital functions:                                                326
 Number of independent orbital functions:                                    326

 Extrapolation method: ASPC


 SCF WAVEFUNCTION OPTIMIZATION

  ----------------------------------- OT ---------------------------------------
  Minimizer      : DIIS                : direct inversion
                                         in the iterative subspace
                                         using   7 DIIS vectors
                                         safer DIIS on
  Preconditioner : FULL_SINGLE_INVERSE : inversion of 
                                         H + eS - 2*(Sc)(c^T*H*c+const)(Sc)^T
  Precond_solver : DEFAULT
  stepsize       :    0.08000000                  energy_gap     :    0.08000000
  eps_taylor     :   0.10000E-15                  max_taylor     :             4
  ----------------------------------- OT ---------------------------------------

  Step     Update method      Time    Convergence         Total energy    Change
  ------------------------------------------------------------------------------
     1 OT DIIS     0.80E-01    4.8     0.00103065      -938.6469628768 -9.39E+02
     2 OT DIIS     0.80E-01    6.1     0.00061896      -938.6510838569 -4.12E-03
     3 OT DIIS     0.80E-01    6.1     0.00063357      -938.6522872565 -1.20E-03
     4 OT DIIS     0.80E-01    6.1     0.00038774      -938.6530432216 -7.56E-04
     5 OT DIIS     0.80E-01    6.1     0.00020804      -938.6532744517 -2.31E-04
     6 OT DIIS     0.80E-01    6.1     0.00010942      -938.6533537910 -7.93E-05
     7 OT DIIS     0.80E-01    6.1     0.00006898      -938.6533816264 -2.78E-05
     8 OT DIIS     0.80E-01    6.1     0.00004476      -938.6533917739 -1.01E-05
     9 OT DIIS     0.80E-01    6.1     0.00003121      -938.6533967166 -4.94E-06
    10 OT DIIS     0.80E-01    6.1     0.00002173      -938.6533985858 -1.87E-06
    11 OT DIIS     0.80E-01    6.1     0.00001654      -938.6534000738 -1.49E-06
    12 OT DIIS     0.80E-01    6.1     0.00001401      -938.6534009614 -8.88E-07
    13 OT DIIS     0.80E-01    6.1     0.00001236      -938.6534016436 -6.82E-07
    14 OT DIIS     0.80E-01    6.1     0.00001025      -938.6534022809 -6.37E-07
    15 OT DIIS     0.80E-01    6.1     0.00000871      -938.6534028685 -5.88E-07

  *** SCF run converged in    15 steps ***


  Electronic density on regular grids:       -423.9999962876        0.0000037124
  Core density on regular grids:              423.9999999740       -0.0000000260
  Total charge density on r-space grids:        0.0000036864
  Total charge density g-space grids:           0.0000036864

  Overlap energy of the core charge distribution:               0.00000005982176
  Self energy of the core charge distribution:              -2435.54055198066590
  Core Hamiltonian energy:                                    709.16802925122136
  Hartree energy:                                            1010.81808147728248
  Exchange-correlation energy:                               -223.09896167611709

  Total energy:                                              -938.65340286845753

 ENERGY| Total FORCE_EVAL ( QS ) energy [hartree]           -938.653403373005290

 OPT| **************************************************************************
 OPT| Step number                                                             33
 OPT| Optimization method                                                  LBFGS
 OPT| Total energy [hartree]                                     -938.6534033730
 OPT| Effective energy change [hartree]                            -0.0039955571
 OPT| Decrease in energy                                                     YES
 OPT| Used time [s]                                                       98.854
 OPT|
 OPT| Maximum step size                                             0.1448638620
 OPT| Convergence limit for maximum step size                       0.0030000000
 OPT| Maximum step size is converged                                          NO
 OPT|
 OPT| RMS step size                                                 0.0300732304
 OPT| Convergence limit for RMS step size                           0.0015000000
 OPT| RMS step size is converged                                              NO
 OPT|
 OPT| Maximum gradient                                              0.0096949801
 OPT| Convergence limit for maximum gradient                        0.0010000000
 OPT| Maximum gradient is converged                                           NO
 OPT|
 OPT| RMS gradient                                                  0.0024113142
 OPT| Convergence limit for RMS gradient                            0.0003000000
 OPT| RMS gradient is converged                                               NO
 OPT| **************************************************************************
 OPT| Estimated peak process memory after this step [MiB]                   1796

 --------------------------
 OPTIMIZATION STEP:     34
 --------------------------

 Number of electrons:                                                        424
 Number of occupied orbitals:                                                212
 Number of molecular orbitals:                                               212

 Number of orbital functions:                                                326
 Number of independent orbital functions:                                    326

 Extrapolation method: ASPC


 SCF WAVEFUNCTION OPTIMIZATION

  ----------------------------------- OT ---------------------------------------
  Minimizer      : DIIS                : direct inversion
                                         in the iterative subspace
                                         using   7 DIIS vectors
                                         safer DIIS on
  Preconditioner : FULL_SINGLE_INVERSE : inversion of 
                                         H + eS - 2*(Sc)(c^T*H*c+const)(Sc)^T
  Precond_solver : DEFAULT
  stepsize       :    0.08000000                  energy_gap     :    0.08000000
  eps_taylor     :   0.10000E-15                  max_taylor     :             4
  ----------------------------------- OT ---------------------------------------

  Step     Update method      Time    Convergence         Total energy    Change
  ------------------------------------------------------------------------------
     1 OT DIIS     0.80E-01    4.9     0.00144786      -938.6427476433 -9.39E+02
     2 OT DIIS     0.80E-01    6.1     0.00089928      -938.6506716455 -7.92E-03
     3 OT DIIS     0.80E-01    6.1     0.00104003      -938.6526864185 -2.01E-03
     4 OT DIIS     0.80E-01    6.1     0.00069816      -938.6542169634 -1.53E-03
     5 OT DIIS     0.80E-01    6.1     0.00029259      -938.6549077950 -6.91E-04
     6 OT DIIS     0.80E-01    6.1     0.00019822      -938.6550721876 -1.64E-04
     7 OT DIIS     0.80E-01    6.1     0.00012605      -938.6551398454 -6.77E-05
     8 OT DIIS     0.80E-01    6.1     0.00007223      -938.6551707245 -3.09E-05
     9 OT DIIS     0.80E-01    6.1     0.00005027      -938.6551841011 -1.34E-05
    10 OT DIIS     0.80E-01    6.1     0.00003515      -938.6551899693 -5.87E-06
    11 OT DIIS     0.80E-01    6.1     0.00002640      -938.6551938894 -3.92E-06
    12 OT DIIS     0.80E-01    6.1     0.00002473      -938.6551962597 -2.37E-06
    13 OT DIIS     0.80E-01    6.1     0.00002045      -938.6551977550 -1.50E-06
    14 OT DIIS     0.80E-01    6.1     0.00001632      -938.6551994595 -1.70E-06
    15 OT DIIS     0.80E-01    6.1     0.00001489      -938.6552007459 -1.29E-06
    16 OT DIIS     0.80E-01    6.1     0.00001224      -938.6552019200 -1.17E-06
    17 OT DIIS     0.80E-01    6.1     0.00001054      -938.6552030259 -1.11E-06
    18 OT DIIS     0.80E-01    6.1     0.00000950      -938.6552036913 -6.65E-07

  *** SCF run converged in    18 steps ***


  Electronic density on regular grids:       -423.9999961312        0.0000038688
  Core density on regular grids:              423.9999999740       -0.0000000260
  Total charge density on r-space grids:        0.0000038428
  Total charge density g-space grids:           0.0000038428

  Overlap energy of the core charge distribution:               0.00000007121761
  Self energy of the core charge distribution:              -2435.54055198066590
  Core Hamiltonian energy:                                    709.25532920905448
  Hartree energy:                                            1010.75695095442779
  Exchange-correlation energy:                               -223.12693194528970

  Total energy:                                              -938.65520369125579

 ENERGY| Total FORCE_EVAL ( QS ) energy [hartree]           -938.655204351922748

 OPT| **************************************************************************
 OPT| Step number                                                             34
 OPT| Optimization method                                                  LBFGS
 OPT| Total energy [hartree]                                     -938.6552043519
 OPT| Effective energy change [hartree]                            -0.0018009789
 OPT| Decrease in energy                                                     YES
 OPT| Used time [s]                                                      117.226
 OPT|
 OPT| Maximum step size                                             0.0828991621
 OPT| Convergence limit for maximum step size                       0.0030000000
 OPT| Maximum step size is converged                                          NO
 OPT|
 OPT| RMS step size                                                 0.0178903893
 OPT| Convergence limit for RMS step size                           0.0015000000
 OPT| RMS step size is converged                                              NO
 OPT|
 OPT| Maximum gradient                                              0.0179209860
 OPT| Convergence limit for maximum gradient                        0.0010000000
 OPT| Maximum gradient is converged                                           NO
 OPT|
 OPT| RMS gradient                                                  0.0035903929
 OPT| Convergence limit for RMS gradient                            0.0003000000
 OPT| RMS gradient is converged                                               NO
 OPT| **************************************************************************
 OPT| Estimated peak process memory after this step [MiB]                   1796

 --------------------------
 OPTIMIZATION STEP:     35
 --------------------------

 Number of electrons:                                                        424
 Number of occupied orbitals:                                                212
 Number of molecular orbitals:                                               212

 Number of orbital functions:                                                326
 Number of independent orbital functions:                                    326

 Extrapolation method: ASPC


 SCF WAVEFUNCTION OPTIMIZATION

  ----------------------------------- OT ---------------------------------------
  Minimizer      : DIIS                : direct inversion
                                         in the iterative subspace
                                         using   7 DIIS vectors
                                         safer DIIS on
  Preconditioner : FULL_SINGLE_INVERSE : inversion of 
                                         H + eS - 2*(Sc)(c^T*H*c+const)(Sc)^T
  Precond_solver : DEFAULT
  stepsize       :    0.08000000                  energy_gap     :    0.08000000
  eps_taylor     :   0.10000E-15                  max_taylor     :             4
  ----------------------------------- OT ---------------------------------------

  Step     Update method      Time    Convergence         Total energy    Change
  ------------------------------------------------------------------------------
     1 OT DIIS     0.80E-01    4.8     0.00110083      -938.6514695196 -9.39E+02
     2 OT DIIS     0.80E-01    6.1     0.00075547      -938.6555880838 -4.12E-03
     3 OT DIIS     0.80E-01    6.1     0.00083894      -938.6564275471 -8.39E-04
     4 OT DIIS     0.80E-01    6.1     0.00049786      -938.6573486828 -9.21E-04
     5 OT DIIS     0.80E-01    6.1     0.00022239      -938.6577738893 -4.25E-04
     6 OT DIIS     0.80E-01    6.1     0.00016494      -938.6578847855 -1.11E-04
     7 OT DIIS     0.80E-01    6.1     0.00010599      -938.6579314253 -4.66E-05
     8 OT DIIS     0.80E-01    6.1     0.00006134      -938.6579575699 -2.61E-05
     9 OT DIIS     0.80E-01    6.1     0.00004698      -938.6579681055 -1.05E-05
    10 OT DIIS     0.80E-01    6.1     0.00003332      -938.6579748922 -6.79E-06
    11 OT DIIS     0.80E-01    6.1     0.00002929      -938.6579792630 -4.37E-06
    12 OT DIIS     0.80E-01    6.1     0.00002713      -938.6579826562 -3.39E-06
    13 OT DIIS     0.80E-01    6.1     0.00002269      -938.6579851706 -2.51E-06
    14 OT DIIS     0.80E-01    6.1     0.00001971      -938.6579880615 -2.89E-06
    15 OT DIIS     0.80E-01    6.1     0.00001813      -938.6579904877 -2.43E-06
    16 OT DIIS     0.80E-01    6.1     0.00001512      -938.6579926090 -2.12E-06
    17 OT DIIS     0.80E-01    6.1     0.00001314      -938.6579947315 -2.12E-06
    18 OT DIIS     0.80E-01    6.1     0.00001176      -938.6579960119 -1.28E-06
    19 OT DIIS     0.80E-01    6.1     0.00001031      -938.6579973043 -1.29E-06
    20 OT DIIS     0.80E-01    6.1     0.00000994      -938.6579981284 -8.24E-07

  *** SCF run converged in    20 steps ***


  Electronic density on regular grids:       -423.9999958726        0.0000041274
  Core density on regular grids:              423.9999999740       -0.0000000260
  Total charge density on r-space grids:        0.0000041015
  Total charge density g-space grids:           0.0000041015

  Overlap energy of the core charge distribution:               0.00000006346528
  Self energy of the core charge distribution:              -2435.54055198066590
  Core Hamiltonian energy:                                    709.21676094032080
  Hartree energy:                                            1010.77959074085072
  Exchange-correlation energy:                               -223.11379789237216

  Total energy:                                              -938.65799812840100

 ENERGY| Total FORCE_EVAL ( QS ) energy [hartree]           -938.657998646956344

 OPT| **************************************************************************
 OPT| Step number                                                             35
 OPT| Optimization method                                                  LBFGS
 OPT| Total energy [hartree]                                     -938.6579986470
 OPT| Effective energy change [hartree]                            -0.0027942950
 OPT| Decrease in energy                                                     YES
 OPT| Used time [s]                                                      129.340
 OPT|
 OPT| Maximum step size                                             0.0330153237
 OPT| Convergence limit for maximum step size                       0.0030000000
 OPT| Maximum step size is converged                                          NO
 OPT|
 OPT| RMS step size                                                 0.0065205466
 OPT| Convergence limit for RMS step size                           0.0015000000
 OPT| RMS step size is converged                                              NO
 OPT|
 OPT| Maximum gradient                                              0.0062559802
 OPT| Convergence limit for maximum gradient                        0.0010000000
 OPT| Maximum gradient is converged                                           NO
 OPT|
 OPT| RMS gradient                                                  0.0018136077
 OPT| Convergence limit for RMS gradient                            0.0003000000
 OPT| RMS gradient is converged                                               NO
 OPT| **************************************************************************
 OPT| Estimated peak process memory after this step [MiB]                   1796

 --------------------------
 OPTIMIZATION STEP:     36
 --------------------------

 Number of electrons:                                                        424
 Number of occupied orbitals:                                                212
 Number of molecular orbitals:                                               212

 Number of orbital functions:                                                326
 Number of independent orbital functions:                                    326

 Extrapolation method: ASPC


 SCF WAVEFUNCTION OPTIMIZATION

  ----------------------------------- OT ---------------------------------------
  Minimizer      : DIIS                : direct inversion
                                         in the iterative subspace
                                         using   7 DIIS vectors
                                         safer DIIS on
  Preconditioner : FULL_SINGLE_INVERSE : inversion of 
                                         H + eS - 2*(Sc)(c^T*H*c+const)(Sc)^T
  Precond_solver : DEFAULT
  stepsize       :    0.08000000                  energy_gap     :    0.08000000
  eps_taylor     :   0.10000E-15                  max_taylor     :             4
  ----------------------------------- OT ---------------------------------------

  Step     Update method      Time    Convergence         Total energy    Change
  ------------------------------------------------------------------------------
     1 OT DIIS     0.80E-01    4.9     0.00084676      -938.6564903109 -9.39E+02
     2 OT DIIS     0.80E-01    6.1     0.00052595      -938.6589292137 -2.44E-03
     3 OT DIIS     0.80E-01    6.1     0.00052834      -938.6594729896 -5.44E-04
     4 OT DIIS     0.80E-01    6.1     0.00036611      -938.6598902101 -4.17E-04
     5 OT DIIS     0.80E-01    6.1     0.00015643      -938.6601034766 -2.13E-04
     6 OT DIIS     0.80E-01    6.1     0.00009531      -938.6601634894 -6.00E-05
     7 OT DIIS     0.80E-01    6.1     0.00007632      -938.6601860447 -2.26E-05
     8 OT DIIS     0.80E-01    6.1     0.00005014      -938.6601984449 -1.24E-05
     9 OT DIIS     0.80E-01    6.1     0.00004031      -938.6602045592 -6.11E-06
    10 OT DIIS     0.80E-01    6.1     0.00002693      -938.6602090813 -4.52E-06
    11 OT DIIS     0.80E-01    6.1     0.00002307      -938.6602122603 -3.18E-06
    12 OT DIIS     0.80E-01    6.1     0.00002091      -938.6602147672 -2.51E-06
    13 OT DIIS     0.80E-01    6.1     0.00001816      -938.6602164622 -1.69E-06
    14 OT DIIS     0.80E-01    6.1     0.00001455      -938.6602181795 -1.72E-06
    15 OT DIIS     0.80E-01    6.1     0.00001319      -938.6602196937 -1.51E-06
    16 OT DIIS     0.80E-01    6.1     0.00001169      -938.6602207429 -1.05E-06
    17 OT DIIS     0.80E-01    6.1     0.00001057      -938.6602217382 -9.95E-07
    18 OT DIIS     0.80E-01    6.1     0.00000905      -938.6602223015 -5.63E-07

  *** SCF run converged in    18 steps ***


  Electronic density on regular grids:       -423.9999956418        0.0000043582
  Core density on regular grids:              423.9999999739       -0.0000000261
  Total charge density on r-space grids:        0.0000043321
  Total charge density g-space grids:           0.0000043321

  Overlap energy of the core charge distribution:               0.00000006031697
  Self energy of the core charge distribution:              -2435.54055198066590
  Core Hamiltonian energy:                                    709.17962244480645
  Hartree energy:                                            1010.80276216283426
  Exchange-correlation energy:                               -223.10205498879694

  Total energy:                                              -938.66022230150531

 ENERGY| Total FORCE_EVAL ( QS ) energy [hartree]           -938.660222944449970

 OPT| **************************************************************************
 OPT| Step number                                                             36
 OPT| Optimization method                                                  LBFGS
 OPT| Total energy [hartree]                                     -938.6602229444
 OPT| Effective energy change [hartree]                            -0.0022242975
 OPT| Decrease in energy                                                     YES
 OPT| Used time [s]                                                      117.222
 OPT|
 OPT| Maximum step size                                             0.0643510053
 OPT| Convergence limit for maximum step size                       0.0030000000
 OPT| Maximum step size is converged                                          NO
 OPT|
 OPT| RMS step size                                                 0.0119074876
 OPT| Convergence limit for RMS step size                           0.0015000000
 OPT| RMS step size is converged                                              NO
 OPT|
 OPT| Maximum gradient                                              0.0067946464
 OPT| Convergence limit for maximum gradient                        0.0010000000
 OPT| Maximum gradient is converged                                           NO
 OPT|
 OPT| RMS gradient                                                  0.0017086375
 OPT| Convergence limit for RMS gradient                            0.0003000000
 OPT| RMS gradient is converged                                               NO
 OPT| **************************************************************************
 OPT| Estimated peak process memory after this step [MiB]                   1796

 --------------------------
 OPTIMIZATION STEP:     37
 --------------------------

 Number of electrons:                                                        424
 Number of occupied orbitals:                                                212
 Number of molecular orbitals:                                               212

 Number of orbital functions:                                                326
 Number of independent orbital functions:                                    326

 Extrapolation method: ASPC


 SCF WAVEFUNCTION OPTIMIZATION

  ----------------------------------- OT ---------------------------------------
  Minimizer      : DIIS                : direct inversion
                                         in the iterative subspace
                                         using   7 DIIS vectors
                                         safer DIIS on
  Preconditioner : FULL_SINGLE_INVERSE : inversion of 
                                         H + eS - 2*(Sc)(c^T*H*c+const)(Sc)^T
  Precond_solver : DEFAULT
  stepsize       :    0.08000000                  energy_gap     :    0.08000000
  eps_taylor     :   0.10000E-15                  max_taylor     :             4
  ----------------------------------- OT ---------------------------------------

  Step     Update method      Time    Convergence         Total energy    Change
  ------------------------------------------------------------------------------
     1 OT DIIS     0.80E-01    4.8     0.00049156      -938.6607130818 -9.39E+02
     2 OT DIIS     0.80E-01    6.1     0.00030430      -938.6615823540 -8.69E-04
     3 OT DIIS     0.80E-01    6.1     0.00027994      -938.6618155513 -2.33E-04
     4 OT DIIS     0.80E-01    6.1     0.00021618      -938.6619753999 -1.60E-04
     5 OT DIIS     0.80E-01    6.1     0.00009887      -938.6620426739 -6.73E-05
     6 OT DIIS     0.80E-01    6.1     0.00005794      -938.6620659367 -2.33E-05
     7 OT DIIS     0.80E-01    6.1     0.00004531      -938.6620742411 -8.30E-06
     8 OT DIIS     0.80E-01    6.1     0.00003047      -938.6620794520 -5.21E-06
     9 OT DIIS     0.80E-01    6.1     0.00002511      -938.6620820322 -2.58E-06
    10 OT DIIS     0.80E-01    6.1     0.00001808      -938.6620840106 -1.98E-06
    11 OT DIIS     0.80E-01    6.1     0.00001558      -938.6620855176 -1.51E-06
    12 OT DIIS     0.80E-01    6.1     0.00001387      -938.6620868688 -1.35E-06
    13 OT DIIS     0.80E-01    6.1     0.00001323      -938.6620877813 -9.12E-07
    14 OT DIIS     0.80E-01    6.1     0.00001071      -938.6620887429 -9.62E-07
    15 OT DIIS     0.80E-01    6.1     0.00000977      -938.6620896332 -8.90E-07

  *** SCF run converged in    15 steps ***


  Electronic density on regular grids:       -423.9999955188        0.0000044812
  Core density on regular grids:              423.9999999740       -0.0000000260
  Total charge density on r-space grids:        0.0000044552
  Total charge density g-space grids:           0.0000044552

  Overlap energy of the core charge distribution:               0.00000005921653
  Self energy of the core charge distribution:              -2435.54055198066590
  Core Hamiltonian energy:                                    709.14443852123998
  Hartree energy:                                            1010.82671993854694
  Exchange-correlation energy:                               -223.09269617158679

  Total energy:                                              -938.66208963324914

 ENERGY| Total FORCE_EVAL ( QS ) energy [hartree]           -938.662090313639624

 OPT| **************************************************************************
 OPT| Step number                                                             37
 OPT| Optimization method                                                  LBFGS
 OPT| Total energy [hartree]                                     -938.6620903136
 OPT| Effective energy change [hartree]                            -0.0018673692
 OPT| Decrease in energy                                                     YES
 OPT| Used time [s]                                                       98.938
 OPT|
 OPT| Maximum step size                                             0.0566911899
 OPT| Convergence limit for maximum step size                       0.0030000000
 OPT| Maximum step size is converged                                          NO
 OPT|
 OPT| RMS step size                                                 0.0108666690
 OPT| Convergence limit for RMS step size                           0.0015000000
 OPT| RMS step size is converged                                              NO
 OPT|
 OPT| Maximum gradient                                              0.0095178306
 OPT| Convergence limit for maximum gradient                        0.0010000000
 OPT| Maximum gradient is converged                                           NO
 OPT|
 OPT| RMS gradient                                                  0.0019628861
 OPT| Convergence limit for RMS gradient                            0.0003000000
 OPT| RMS gradient is converged                                               NO
 OPT| **************************************************************************
 OPT| Estimated peak process memory after this step [MiB]                   1796

 --------------------------
 OPTIMIZATION STEP:     38
 --------------------------

 Number of electrons:                                                        424
 Number of occupied orbitals:                                                212
 Number of molecular orbitals:                                               212

 Number of orbital functions:                                                326
 Number of independent orbital functions:                                    326

 Extrapolation method: ASPC


 SCF WAVEFUNCTION OPTIMIZATION

  ----------------------------------- OT ---------------------------------------
  Minimizer      : DIIS                : direct inversion
                                         in the iterative subspace
                                         using   7 DIIS vectors
                                         safer DIIS on
  Preconditioner : FULL_SINGLE_INVERSE : inversion of 
                                         H + eS - 2*(Sc)(c^T*H*c+const)(Sc)^T
  Precond_solver : DEFAULT
  stepsize       :    0.08000000                  energy_gap     :    0.08000000
  eps_taylor     :   0.10000E-15                  max_taylor     :             4
  ----------------------------------- OT ---------------------------------------

  Step     Update method      Time    Convergence         Total energy    Change
  ------------------------------------------------------------------------------
     1 OT DIIS     0.80E-01    4.9     0.00098113      -938.6582378911 -9.39E+02
     2 OT DIIS     0.80E-01    6.1     0.00063237      -938.6617574595 -3.52E-03
     3 OT DIIS     0.80E-01    6.1     0.00067932      -938.6625974631 -8.40E-04
     4 OT DIIS     0.80E-01    6.1     0.00050958      -938.6632836280 -6.86E-04
     5 OT DIIS     0.80E-01    6.1     0.00018647      -938.6635945487 -3.11E-04
     6 OT DIIS     0.80E-01    6.1     0.00011824      -938.6636786818 -8.41E-05
     7 OT DIIS     0.80E-01    6.1     0.00009100      -938.6637072968 -2.86E-05
     8 OT DIIS     0.80E-01    6.1     0.00004910      -938.6637259920 -1.87E-05
     9 OT DIIS     0.80E-01    6.1     0.00003754      -938.6637352294 -9.24E-06
    10 OT DIIS     0.80E-01    6.1     0.00002936      -938.6637399217 -4.69E-06
    11 OT DIIS     0.80E-01    6.1     0.00002404      -938.6637431648 -3.24E-06
    12 OT DIIS     0.80E-01    6.1     0.00002168      -938.6637456145 -2.45E-06
    13 OT DIIS     0.80E-01    6.1     0.00001915      -938.6637469802 -1.37E-06
    14 OT DIIS     0.80E-01    6.1     0.00001483      -938.6637487198 -1.74E-06
    15 OT DIIS     0.80E-01    6.1     0.00001397      -938.6637500496 -1.33E-06
    16 OT DIIS     0.80E-01    6.1     0.00001160      -938.6637510853 -1.04E-06
    17 OT DIIS     0.80E-01    6.1     0.00000937      -938.6637521766 -1.09E-06

  *** SCF run converged in    17 steps ***


  Electronic density on regular grids:       -423.9999958201        0.0000041799
  Core density on regular grids:              423.9999999738       -0.0000000262
  Total charge density on r-space grids:        0.0000041537
  Total charge density g-space grids:           0.0000041537

  Overlap energy of the core charge distribution:               0.00000006112443
  Self energy of the core charge distribution:              -2435.54055198066590
  Core Hamiltonian energy:                                    709.07863931178235
  Hartree energy:                                            1010.87333518393893
  Exchange-correlation energy:                               -223.07517475282586

  Total energy:                                              -938.66375217664608

 ENERGY| Total FORCE_EVAL ( QS ) energy [hartree]           -938.663752771087729

 OPT| **************************************************************************
 OPT| Step number                                                             38
 OPT| Optimization method                                                  LBFGS
 OPT| Total energy [hartree]                                     -938.6637527711
 OPT| Effective energy change [hartree]                            -0.0016624574
 OPT| Decrease in energy                                                     YES
 OPT| Used time [s]                                                      111.135
 OPT|
 OPT| Maximum step size                                             0.1684104675
 OPT| Convergence limit for maximum step size                       0.0030000000
 OPT| Maximum step size is converged                                          NO
 OPT|
 OPT| RMS step size                                                 0.0317432534
 OPT| Convergence limit for RMS step size                           0.0015000000
 OPT| RMS step size is converged                                              NO
 OPT|
 OPT| Maximum gradient                                              0.0127124484
 OPT| Convergence limit for maximum gradient                        0.0010000000
 OPT| Maximum gradient is converged                                           NO
 OPT|
 OPT| RMS gradient                                                  0.0031350447
 OPT| Convergence limit for RMS gradient                            0.0003000000
 OPT| RMS gradient is converged                                               NO
 OPT| **************************************************************************
 OPT| Estimated peak process memory after this step [MiB]                   1796

 --------------------------
 OPTIMIZATION STEP:     39
 --------------------------

 Number of electrons:                                                        424
 Number of occupied orbitals:                                                212
 Number of molecular orbitals:                                               212

 Number of orbital functions:                                                326
 Number of independent orbital functions:                                    326

 Extrapolation method: ASPC


 SCF WAVEFUNCTION OPTIMIZATION

  ----------------------------------- OT ---------------------------------------
  Minimizer      : DIIS                : direct inversion
                                         in the iterative subspace
                                         using   7 DIIS vectors
                                         safer DIIS on
  Preconditioner : FULL_SINGLE_INVERSE : inversion of 
                                         H + eS - 2*(Sc)(c^T*H*c+const)(Sc)^T
  Precond_solver : DEFAULT
  stepsize       :    0.08000000                  energy_gap     :    0.08000000
  eps_taylor     :   0.10000E-15                  max_taylor     :             4
  ----------------------------------- OT ---------------------------------------

  Step     Update method      Time    Convergence         Total energy    Change
  ------------------------------------------------------------------------------
     1 OT DIIS     0.80E-01    4.9     0.00231640      -938.6370284092 -9.39E+02
     2 OT DIIS     0.80E-01    6.1     0.00151176      -938.6556579962 -1.86E-02
     3 OT DIIS     0.80E-01    6.1     0.00147348      -938.6601323975 -4.47E-03
     4 OT DIIS     0.80E-01    6.1     0.00118579      -938.6634496872 -3.32E-03
     5 OT DIIS     0.80E-01    6.1     0.00042503      -938.6651871404 -1.74E-03
     6 OT DIIS     0.80E-01    6.1     0.00023816      -938.6655979581 -4.11E-04
     7 OT DIIS     0.80E-01    6.1     0.00019818      -938.6657219814 -1.24E-04
     8 OT DIIS     0.80E-01    6.1     0.00010622      -938.6658002675 -7.83E-05
     9 OT DIIS     0.80E-01    6.1     0.00008468      -938.6658396778 -3.94E-05
    10 OT DIIS     0.80E-01    6.1     0.00005995      -938.6658645077 -2.48E-05
    11 OT DIIS     0.80E-01    6.1     0.00005158      -938.6658816092 -1.71E-05
    12 OT DIIS     0.80E-01    6.1     0.00004770      -938.6658939311 -1.23E-05
    13 OT DIIS     0.80E-01    6.1     0.00004237      -938.6659003077 -6.38E-06
    14 OT DIIS     0.80E-01    6.1     0.00003174      -938.6659083631 -8.06E-06
    15 OT DIIS     0.80E-01    6.1     0.00002867      -938.6659146490 -6.29E-06
    16 OT DIIS     0.80E-01    6.1     0.00002409      -938.6659186407 -3.99E-06
    17 OT DIIS     0.80E-01    6.1     0.00001890      -938.6659224129 -3.77E-06
    18 OT DIIS     0.80E-01    6.1     0.00001590      -938.6659241722 -1.76E-06
    19 OT DIIS     0.80E-01    6.1     0.00001268      -938.6659256288 -1.46E-06
    20 OT DIIS     0.80E-01    6.1     0.00001201      -938.6659265631 -9.34E-07
    21 OT DIIS     0.80E-01    6.1     0.00001172      -938.6659270558 -4.93E-07
    22 OT DIIS     0.80E-01    6.1     0.00000899      -938.6659275261 -4.70E-07

  *** SCF run converged in    22 steps ***


  Electronic density on regular grids:       -423.9999953964        0.0000046036
  Core density on regular grids:              423.9999999738       -0.0000000262
  Total charge density on r-space grids:        0.0000045774
  Total charge density g-space grids:           0.0000045774

  Overlap energy of the core charge distribution:               0.00000006201264
  Self energy of the core charge distribution:              -2435.54055198066590
  Core Hamiltonian energy:                                    709.13546682818583
  Hartree energy:                                            1010.83244020224640
  Exchange-correlation energy:                               -223.09328263788061

  Total energy:                                              -938.66592752610177

 ENERGY| Total FORCE_EVAL ( QS ) energy [hartree]           -938.665927903436227

 OPT| **************************************************************************
 OPT| Step number                                                             39
 OPT| Optimization method                                                  LBFGS
 OPT| Total energy [hartree]                                     -938.6659279034
 OPT| Effective energy change [hartree]                            -0.0021751323
 OPT| Decrease in energy                                                     YES
 OPT| Used time [s]                                                      141.681
 OPT|
 OPT| Maximum step size                                             0.0313452694
 OPT| Convergence limit for maximum step size                       0.0030000000
 OPT| Maximum step size is converged                                          NO
 OPT|
 OPT| RMS step size                                                 0.0077554134
 OPT| Convergence limit for RMS step size                           0.0015000000
 OPT| RMS step size is converged                                              NO
 OPT|
 OPT| Maximum gradient                                              0.0206926346
 OPT| Convergence limit for maximum gradient                        0.0010000000
 OPT| Maximum gradient is converged                                           NO
 OPT|
 OPT| RMS gradient                                                  0.0029947729
 OPT| Convergence limit for RMS gradient                            0.0003000000
 OPT| RMS gradient is converged                                               NO
 OPT| **************************************************************************
 OPT| Estimated peak process memory after this step [MiB]                   1796

 --------------------------
 OPTIMIZATION STEP:     40
 --------------------------

 Number of electrons:                                                        424
 Number of occupied orbitals:                                                212
 Number of molecular orbitals:                                               212

 Number of orbital functions:                                                326
 Number of independent orbital functions:                                    326

 Extrapolation method: ASPC


 SCF WAVEFUNCTION OPTIMIZATION

  ----------------------------------- OT ---------------------------------------
  Minimizer      : DIIS                : direct inversion
                                         in the iterative subspace
                                         using   7 DIIS vectors
                                         safer DIIS on
  Preconditioner : FULL_SINGLE_INVERSE : inversion of 
                                         H + eS - 2*(Sc)(c^T*H*c+const)(Sc)^T
  Precond_solver : DEFAULT
  stepsize       :    0.08000000                  energy_gap     :    0.08000000
  eps_taylor     :   0.10000E-15                  max_taylor     :             4
  ----------------------------------- OT ---------------------------------------

  Step     Update method      Time    Convergence         Total energy    Change
  ------------------------------------------------------------------------------
     1 OT DIIS     0.80E-01    4.9     0.00187295      -938.6490698965 -9.39E+02
     2 OT DIIS     0.80E-01    6.1     0.00122074      -938.6611099434 -1.20E-02
     3 OT DIIS     0.80E-01    6.1     0.00128216      -938.6637718413 -2.66E-03
     4 OT DIIS     0.80E-01    6.1     0.00096912      -938.6659083192 -2.14E-03
     5 OT DIIS     0.80E-01    6.1     0.00034937      -938.6671399678 -1.23E-03
     6 OT DIIS     0.80E-01    6.1     0.00022458      -938.6674105298 -2.71E-04
     7 OT DIIS     0.80E-01    6.1     0.00015974      -938.6675117281 -1.01E-04
     8 OT DIIS     0.80E-01    6.1     0.00009266      -938.6675694573 -5.77E-05
     9 OT DIIS     0.80E-01    6.1     0.00006849      -938.6675975612 -2.81E-05
    10 OT DIIS     0.80E-01    6.1     0.00004983      -938.6676144228 -1.69E-05
    11 OT DIIS     0.80E-01    6.1     0.00004202      -938.6676250112 -1.06E-05
    12 OT DIIS     0.80E-01    6.1     0.00003956      -938.6676319091 -6.90E-06
    13 OT DIIS     0.80E-01    6.1     0.00003152      -938.6676356119 -3.70E-06
    14 OT DIIS     0.80E-01    6.1     0.00002380      -938.6676398552 -4.24E-06
    15 OT DIIS     0.80E-01    6.1     0.00002119      -938.6676428834 -3.03E-06
    16 OT DIIS     0.80E-01    6.1     0.00001738      -938.6676451086 -2.23E-06
    17 OT DIIS     0.80E-01    6.1     0.00001361      -938.6676470301 -1.92E-06
    18 OT DIIS     0.80E-01    6.1     0.00001170      -938.6676479623 -9.32E-07
    19 OT DIIS     0.80E-01    6.1     0.00000962      -938.6676487736 -8.11E-07

  *** SCF run converged in    19 steps ***


  Electronic density on regular grids:       -423.9999951365        0.0000048635
  Core density on regular grids:              423.9999999738       -0.0000000262
  Total charge density on r-space grids:        0.0000048373
  Total charge density g-space grids:           0.0000048373

  Overlap energy of the core charge distribution:               0.00000006242666
  Self energy of the core charge distribution:              -2435.54055198066590
  Core Hamiltonian energy:                                    709.16824636366516
  Hartree energy:                                            1010.80818637390564
  Exchange-correlation energy:                               -223.10352959295381

  Total energy:                                              -938.66764877362198

 ENERGY| Total FORCE_EVAL ( QS ) energy [hartree]           -938.667649274865653

 OPT| **************************************************************************
 OPT| Step number                                                             40
 OPT| Optimization method                                                  LBFGS
 OPT| Total energy [hartree]                                     -938.6676492749
 OPT| Effective energy change [hartree]                            -0.0017213714
 OPT| Decrease in energy                                                     YES
 OPT| Used time [s]                                                      123.395
 OPT|
 OPT| Maximum step size                                             0.0247541334
 OPT| Convergence limit for maximum step size                       0.0030000000
 OPT| Maximum step size is converged                                          NO
 OPT|
 OPT| RMS step size                                                 0.0056356888
 OPT| Convergence limit for RMS step size                           0.0015000000
 OPT| RMS step size is converged                                              NO
 OPT|
 OPT| Maximum gradient                                              0.0069200432
 OPT| Convergence limit for maximum gradient                        0.0010000000
 OPT| Maximum gradient is converged                                           NO
 OPT|
 OPT| RMS gradient                                                  0.0014788020
 OPT| Convergence limit for RMS gradient                            0.0003000000
 OPT| RMS gradient is converged                                               NO
 OPT| **************************************************************************
 OPT| Estimated peak process memory after this step [MiB]                   1796

 --------------------------
 OPTIMIZATION STEP:     41
 --------------------------

 Number of electrons:                                                        424
 Number of occupied orbitals:                                                212
 Number of molecular orbitals:                                               212

 Number of orbital functions:                                                326
 Number of independent orbital functions:                                    326

 Extrapolation method: ASPC


 SCF WAVEFUNCTION OPTIMIZATION

  ----------------------------------- OT ---------------------------------------
  Minimizer      : DIIS                : direct inversion
                                         in the iterative subspace
                                         using   7 DIIS vectors
                                         safer DIIS on
  Preconditioner : FULL_SINGLE_INVERSE : inversion of 
                                         H + eS - 2*(Sc)(c^T*H*c+const)(Sc)^T
  Precond_solver : DEFAULT
  stepsize       :    0.08000000                  energy_gap     :    0.08000000
  eps_taylor     :   0.10000E-15                  max_taylor     :             4
  ----------------------------------- OT ---------------------------------------

  Step     Update method      Time    Convergence         Total energy    Change
  ------------------------------------------------------------------------------
     1 OT DIIS     0.80E-01    4.9     0.00071800      -938.6663771402 -9.39E+02
     2 OT DIIS     0.80E-01    6.1     0.00043251      -938.6680549881 -1.68E-03
     3 OT DIIS     0.80E-01    6.1     0.00046679      -938.6683780006 -3.23E-04
     4 OT DIIS     0.80E-01    6.1     0.00031732      -938.6686297384 -2.52E-04
     5 OT DIIS     0.80E-01    6.1     0.00014729      -938.6687786903 -1.49E-04
     6 OT DIIS     0.80E-01    6.1     0.00009030      -938.6688190776 -4.04E-05
     7 OT DIIS     0.80E-01    6.1     0.00006053      -938.6688345965 -1.55E-05
     8 OT DIIS     0.80E-01    6.1     0.00003311      -938.6688432019 -8.61E-06
     9 OT DIIS     0.80E-01    6.1     0.00002799      -938.6688465697 -3.37E-06
    10 OT DIIS     0.80E-01    6.1     0.00001849      -938.6688488614 -2.29E-06
    11 OT DIIS     0.80E-01    6.1     0.00001500      -938.6688502143 -1.35E-06
    12 OT DIIS     0.80E-01    6.1     0.00001465      -938.6688510320 -8.18E-07
    13 OT DIIS     0.80E-01    6.1     0.00001058      -938.6688514882 -4.56E-07
    14 OT DIIS     0.80E-01    6.1     0.00000817      -938.6688518532 -3.65E-07

  *** SCF run converged in    14 steps ***


  Electronic density on regular grids:       -423.9999951062        0.0000048938
  Core density on regular grids:              423.9999999738       -0.0000000262
  Total charge density on r-space grids:        0.0000048676
  Total charge density g-space grids:           0.0000048676

  Overlap energy of the core charge distribution:               0.00000006267227
  Self energy of the core charge distribution:              -2435.54055198066590
  Core Hamiltonian energy:                                    709.19498985225744
  Hartree energy:                                            1010.78605825423722
  Exchange-correlation energy:                               -223.10934804169713

  Total energy:                                              -938.66885185319586

 ENERGY| Total FORCE_EVAL ( QS ) energy [hartree]           -938.668852112836817

 OPT| **************************************************************************
 OPT| Step number                                                             41
 OPT| Optimization method                                                  LBFGS
 OPT| Total energy [hartree]                                     -938.6688521128
 OPT| Effective energy change [hartree]                            -0.0012028380
 OPT| Decrease in energy                                                     YES
 OPT| Used time [s]                                                       92.900
 OPT|
 OPT| Maximum step size                                             0.0255676584
 OPT| Convergence limit for maximum step size                       0.0030000000
 OPT| Maximum step size is converged                                          NO
 OPT|
 OPT| RMS step size                                                 0.0054081626
 OPT| Convergence limit for RMS step size                           0.0015000000
 OPT| RMS step size is converged                                              NO
 OPT|
 OPT| Maximum gradient                                              0.0047996161
 OPT| Convergence limit for maximum gradient                        0.0010000000
 OPT| Maximum gradient is converged                                           NO
 OPT|
 OPT| RMS gradient                                                  0.0010747621
 OPT| Convergence limit for RMS gradient                            0.0003000000
 OPT| RMS gradient is converged                                               NO
 OPT| **************************************************************************
 OPT| Estimated peak process memory after this step [MiB]                   1796

 --------------------------
 OPTIMIZATION STEP:     42
 --------------------------

 Number of electrons:                                                        424
 Number of occupied orbitals:                                                212
 Number of molecular orbitals:                                               212

 Number of orbital functions:                                                326
 Number of independent orbital functions:                                    326

 Extrapolation method: ASPC


 SCF WAVEFUNCTION OPTIMIZATION

  ----------------------------------- OT ---------------------------------------
  Minimizer      : DIIS                : direct inversion
                                         in the iterative subspace
                                         using   7 DIIS vectors
                                         safer DIIS on
  Preconditioner : FULL_SINGLE_INVERSE : inversion of 
                                         H + eS - 2*(Sc)(c^T*H*c+const)(Sc)^T
  Precond_solver : DEFAULT
  stepsize       :    0.08000000                  energy_gap     :    0.08000000
  eps_taylor     :   0.10000E-15                  max_taylor     :             4
  ----------------------------------- OT ---------------------------------------

  Step     Update method      Time    Convergence         Total energy    Change
  ------------------------------------------------------------------------------
     1 OT DIIS     0.80E-01    4.9     0.00024900      -938.6696517300 -9.39E+02
     2 OT DIIS     0.80E-01    6.1     0.00016571      -938.6698547673 -2.03E-04
     3 OT DIIS     0.80E-01    6.1     0.00018504      -938.6698893205 -3.46E-05
     4 OT DIIS     0.80E-01    6.1     0.00008304      -938.6699341373 -4.48E-05
     5 OT DIIS     0.80E-01    6.1     0.00004180      -938.6699500975 -1.60E-05
     6 OT DIIS     0.80E-01    6.1     0.00002929      -938.6699548390 -4.74E-06
     7 OT DIIS     0.80E-01    6.1     0.00002041      -938.6699570296 -2.19E-06
     8 OT DIIS     0.80E-01    6.1     0.00001450      -938.6699584207 -1.39E-06
     9 OT DIIS     0.80E-01    6.1     0.00001382      -938.6699593288 -9.08E-07
    10 OT DIIS     0.80E-01    6.1     0.00001084      -938.6699599847 -6.56E-07
    11 OT DIIS     0.80E-01    6.1     0.00000973      -938.6699607648 -7.80E-07

  *** SCF run converged in    11 steps ***


  Electronic density on regular grids:       -423.9999952715        0.0000047285
  Core density on regular grids:              423.9999999740       -0.0000000260
  Total charge density on r-space grids:        0.0000047025
  Total charge density g-space grids:           0.0000047025

  Overlap energy of the core charge distribution:               0.00000006264468
  Self energy of the core charge distribution:              -2435.54055198066590
  Core Hamiltonian energy:                                    709.22421687566521
  Hartree energy:                                            1010.76133195553894
  Exchange-correlation energy:                               -223.11495767794602

  Total energy:                                              -938.66996076476312

 ENERGY| Total FORCE_EVAL ( QS ) energy [hartree]           -938.669961362103095

 OPT| **************************************************************************
 OPT| Step number                                                             42
 OPT| Optimization method                                                  LBFGS
 OPT| Total energy [hartree]                                     -938.6699613621
 OPT| Effective energy change [hartree]                            -0.0011092493
 OPT| Decrease in energy                                                     YES
 OPT| Used time [s]                                                       74.607
 OPT|
 OPT| Maximum step size                                             0.0446470751
 OPT| Convergence limit for maximum step size                       0.0030000000
 OPT| Maximum step size is converged                                          NO
 OPT|
 OPT| RMS step size                                                 0.0082761672
 OPT| Convergence limit for RMS step size                           0.0015000000
 OPT| RMS step size is converged                                              NO
 OPT|
 OPT| Maximum gradient                                              0.0054368156
 OPT| Convergence limit for maximum gradient                        0.0010000000
 OPT| Maximum gradient is converged                                           NO
 OPT|
 OPT| RMS gradient                                                  0.0011914579
 OPT| Convergence limit for RMS gradient                            0.0003000000
 OPT| RMS gradient is converged                                               NO
 OPT| **************************************************************************
 OPT| Estimated peak process memory after this step [MiB]                   1796

 --------------------------
 OPTIMIZATION STEP:     43
 --------------------------

 Number of electrons:                                                        424
 Number of occupied orbitals:                                                212
 Number of molecular orbitals:                                               212

 Number of orbital functions:                                                326
 Number of independent orbital functions:                                    326

 Extrapolation method: ASPC


 SCF WAVEFUNCTION OPTIMIZATION

  ----------------------------------- OT ---------------------------------------
  Minimizer      : DIIS                : direct inversion
                                         in the iterative subspace
                                         using   7 DIIS vectors
                                         safer DIIS on
  Preconditioner : FULL_SINGLE_INVERSE : inversion of 
                                         H + eS - 2*(Sc)(c^T*H*c+const)(Sc)^T
  Precond_solver : DEFAULT
  stepsize       :    0.08000000                  energy_gap     :    0.08000000
  eps_taylor     :   0.10000E-15                  max_taylor     :             4
  ----------------------------------- OT ---------------------------------------

  Step     Update method      Time    Convergence         Total energy    Change
  ------------------------------------------------------------------------------
     1 OT DIIS     0.80E-01    4.9     0.00109293      -938.6645430410 -9.39E+02
     2 OT DIIS     0.80E-01    6.1     0.00070058      -938.6688963203 -4.35E-03
     3 OT DIIS     0.80E-01    6.1     0.00077266      -938.6698526979 -9.56E-04
     4 OT DIIS     0.80E-01    6.1     0.00051749      -938.6706961460 -8.43E-04
     5 OT DIIS     0.80E-01    6.1     0.00018093      -938.6710240552 -3.28E-04
     6 OT DIIS     0.80E-01    6.1     0.00015278      -938.6710910646 -6.70E-05
     7 OT DIIS     0.80E-01    6.1     0.00007890      -938.6711234532 -3.24E-05
     8 OT DIIS     0.80E-01    6.1     0.00004972      -938.6711404896 -1.70E-05
     9 OT DIIS     0.80E-01    6.1     0.00003941      -938.6711495069 -9.02E-06
    10 OT DIIS     0.80E-01    6.1     0.00003142      -938.6711550152 -5.51E-06
    11 OT DIIS     0.80E-01    6.1     0.00002603      -938.6711597708 -4.76E-06
    12 OT DIIS     0.80E-01    6.1     0.00002471      -938.6711632077 -3.44E-06
    13 OT DIIS     0.80E-01    6.1     0.00002111      -938.6711653596 -2.15E-06
    14 OT DIIS     0.80E-01    6.1     0.00001831      -938.6711680508 -2.69E-06
    15 OT DIIS     0.80E-01    6.1     0.00001727      -938.6711699469 -1.90E-06
    16 OT DIIS     0.80E-01    6.1     0.00001424      -938.6711720829 -2.14E-06
    17 OT DIIS     0.80E-01    6.1     0.00001215      -938.6711742067 -2.12E-06
    18 OT DIIS     0.80E-01    6.1     0.00001127      -938.6711753220 -1.12E-06
    19 OT DIIS     0.80E-01    6.1     0.00000930      -938.6711765009 -1.18E-06

  *** SCF run converged in    19 steps ***


  Electronic density on regular grids:       -423.9999954846        0.0000045154
  Core density on regular grids:              423.9999999739       -0.0000000261
  Total charge density on r-space grids:        0.0000044893
  Total charge density g-space grids:           0.0000044893

  Overlap energy of the core charge distribution:               0.00000006434709
  Self energy of the core charge distribution:              -2435.54055198066590
  Core Hamiltonian energy:                                    709.26649720915566
  Hartree energy:                                            1010.72066704539623
  Exchange-correlation energy:                               -223.11778883912717

  Total energy:                                              -938.67117650089403

 ENERGY| Total FORCE_EVAL ( QS ) energy [hartree]           -938.671177286208149

 Number of electrons:                                                        424
 Number of occupied orbitals:                                                212
 Number of molecular orbitals:                                               212

 Number of orbital functions:                                                326
 Number of independent orbital functions:                                    326

 Extrapolation method: ASPC


 SCF WAVEFUNCTION OPTIMIZATION

  ----------------------------------- OT ---------------------------------------
  Minimizer      : DIIS                : direct inversion
                                         in the iterative subspace
                                         using   7 DIIS vectors
                                         safer DIIS on
  Preconditioner : FULL_SINGLE_INVERSE : inversion of 
                                         H + eS - 2*(Sc)(c^T*H*c+const)(Sc)^T
  Precond_solver : DEFAULT
  stepsize       :    0.08000000                  energy_gap     :    0.08000000
  eps_taylor     :   0.10000E-15                  max_taylor     :             4
  ----------------------------------- OT ---------------------------------------

  Step     Update method      Time    Convergence         Total energy    Change
  ------------------------------------------------------------------------------
     1 OT DIIS     0.80E-01    4.9     0.00341414      -938.6102393407 -9.39E+02
     2 OT DIIS     0.80E-01    6.1     0.00240007      -938.6495409509 -3.93E-02
     3 OT DIIS     0.80E-01    6.1     0.00194923      -938.6601158999 -1.06E-02
     4 OT DIIS     0.80E-01    6.1     0.00155362      -938.6680837503 -7.97E-03
     5 OT DIIS     0.80E-01    6.1     0.00056824      -938.6707491552 -2.67E-03
     6 OT DIIS     0.80E-01    6.1     0.00033316      -938.6713543442 -6.05E-04
     7 OT DIIS     0.80E-01    6.1     0.00026170      -938.6715425303 -1.88E-04
     8 OT DIIS     0.80E-01    6.1     0.00014162      -938.6716667412 -1.24E-04
     9 OT DIIS     0.80E-01    6.1     0.00010133      -938.6717375109 -7.08E-05
    10 OT DIIS     0.80E-01    6.1     0.00007950      -938.6717796034 -4.21E-05
    11 OT DIIS     0.80E-01    6.1     0.00006566      -938.6718133947 -3.38E-05
    12 OT DIIS     0.80E-01    6.1     0.00006002      -938.6718351867 -2.18E-05
    13 OT DIIS     0.80E-01    6.1     0.00005628      -938.6718489689 -1.38E-05
    14 OT DIIS     0.80E-01    6.1     0.00004361      -938.6718631287 -1.42E-05
    15 OT DIIS     0.80E-01    6.1     0.00004171      -938.6718748716 -1.17E-05
    16 OT DIIS     0.80E-01    6.1     0.00003656      -938.6718837067 -8.84E-06
    17 OT DIIS     0.80E-01    6.1     0.00003025      -938.6718937190 -1.00E-05
    18 OT DIIS     0.80E-01    6.1     0.00002722      -938.6719004410 -6.72E-06
    19 OT DIIS     0.80E-01    6.1     0.00002389      -938.6719069436 -6.50E-06
    20 OT DIIS     0.80E-01    6.1     0.00002305      -938.6719118647 -4.92E-06
    21 OT DIIS     0.80E-01    6.1     0.00002289      -938.6719160077 -4.14E-06
    22 OT DIIS     0.80E-01    6.1     0.00001969      -938.6719198567 -3.85E-06
    23 OT DIIS     0.80E-01    6.1     0.00001830      -938.6719233681 -3.51E-06
    24 OT DIIS     0.80E-01    6.1     0.00001653      -938.6719255360 -2.17E-06
    25 OT DIIS     0.80E-01    6.1     0.00001379      -938.6719277721 -2.24E-06
    26 OT DIIS     0.80E-01    6.1     0.00001238      -938.6719295014 -1.73E-06
    27 OT DIIS     0.80E-01    6.1     0.00001093      -938.6719308550 -1.35E-06
    28 OT DIIS     0.80E-01    6.1     0.00001006      -938.6719317729 -9.18E-07
    29 OT DIIS     0.80E-01    6.1     0.00000991      -938.6719323765 -6.04E-07

  *** SCF run converged in    29 steps ***


  Electronic density on regular grids:       -423.9999951929        0.0000048071
  Core density on regular grids:              423.9999999740       -0.0000000260
  Total charge density on r-space grids:        0.0000047812
  Total charge density g-space grids:           0.0000047812

  Overlap energy of the core charge distribution:               0.00000006344090
  Self energy of the core charge distribution:              -2435.54055198066590
  Core Hamiltonian energy:                                    709.24783050793690
  Hartree energy:                                            1010.73939294845036
  Exchange-correlation energy:                               -223.11860391569493

  Total energy:                                              -938.67193237653271

 ENERGY| Total FORCE_EVAL ( QS ) energy [hartree]           -938.671932738084593

 OPT| **************************************************************************
 OPT| Step number                                                             43
 OPT| Optimization method                                                  LBFGS
 OPT| Total energy [hartree]                                     -938.6719327381
 OPT| Effective energy change [hartree]                            -0.0019713760
 OPT| Decrease in energy                                                     YES
 OPT| Used time [s]                                                      307.648
 OPT|
 OPT| Maximum step size                                             0.0842620200
 OPT| Convergence limit for maximum step size                       0.0030000000
 OPT| Maximum step size is converged                                          NO
 OPT|
 OPT| RMS step size                                                 0.0151520080
 OPT| Convergence limit for RMS step size                           0.0015000000
 OPT| RMS step size is converged                                              NO
 OPT|
 OPT| Maximum gradient                                              0.0108055876
 OPT| Convergence limit for maximum gradient                        0.0010000000
 OPT| Maximum gradient is converged                                           NO
 OPT|
 OPT| RMS gradient                                                  0.0018861234
 OPT| Convergence limit for RMS gradient                            0.0003000000
 OPT| RMS gradient is converged                                               NO
 OPT| **************************************************************************
 OPT| Estimated peak process memory after this step [MiB]                   1796

 --------------------------
 OPTIMIZATION STEP:     44
 --------------------------

 Number of electrons:                                                        424
 Number of occupied orbitals:                                                212
 Number of molecular orbitals:                                               212

 Number of orbital functions:                                                326
 Number of independent orbital functions:                                    326

 Extrapolation method: ASPC


 SCF WAVEFUNCTION OPTIMIZATION

  ----------------------------------- OT ---------------------------------------
  Minimizer      : DIIS                : direct inversion
                                         in the iterative subspace
                                         using   7 DIIS vectors
                                         safer DIIS on
  Preconditioner : FULL_SINGLE_INVERSE : inversion of 
                                         H + eS - 2*(Sc)(c^T*H*c+const)(Sc)^T
  Precond_solver : DEFAULT
  stepsize       :    0.08000000                  energy_gap     :    0.08000000
  eps_taylor     :   0.10000E-15                  max_taylor     :             4
  ----------------------------------- OT ---------------------------------------

  Step     Update method      Time    Convergence         Total energy    Change
  ------------------------------------------------------------------------------
     1 OT DIIS     0.80E-01    4.9     0.00730290      -938.3209645952 -9.38E+02
     2 OT DIIS     0.80E-01    6.1     0.00535617      -938.5099787970 -1.89E-01
     3 OT DIIS     0.80E-01    6.1     0.00466943      -938.5611689335 -5.12E-02
     4 OT DIIS     0.80E-01    6.1     0.00393379      -938.6025899454 -4.14E-02
     5 OT DIIS     0.80E-01    6.1     0.00136661      -938.6201829142 -1.76E-02
     6 OT DIIS     0.80E-01    6.1     0.00092233      -938.6237074562 -3.52E-03
     7 OT DIIS     0.80E-01    6.1     0.00067705      -938.6258493647 -2.14E-03
     8 OT DIIS     0.80E-01    6.1     0.00032354      -938.6271125570 -1.26E-03
     9 OT DIIS     0.80E-01    6.1     0.00023315      -938.6275202199 -4.08E-04
    10 OT DIIS     0.80E-01    6.1     0.00016546      -938.6278082999 -2.88E-04
    11 OT DIIS     0.80E-01    6.1     0.00015627      -938.6279448429 -1.37E-04
    12 OT DIIS     0.80E-01    6.1     0.00012219      -938.6281292766 -1.84E-04
    13 OT DIIS     0.80E-01    6.1     0.00010410      -938.6281978960 -6.86E-05
    14 OT DIIS     0.80E-01    6.1     0.00008525      -938.6282757919 -7.79E-05
    15 OT DIIS     0.80E-01    6.1     0.00007642      -938.6283280298 -5.22E-05
    16 OT DIIS     0.80E-01    6.1     0.00006287      -938.6283696767 -4.16E-05
    17 OT DIIS     0.80E-01    6.1     0.00005413      -938.6284089387 -3.93E-05
    18 OT DIIS     0.80E-01    6.1     0.00004487      -938.6284376103 -2.87E-05
    19 OT DIIS     0.80E-01    6.1     0.00003973      -938.6284599852 -2.24E-05
    20 OT DIIS     0.80E-01    6.1     0.00003721      -938.6284742017 -1.42E-05
    21 OT DIIS     0.80E-01    6.1     0.00003664      -938.6284853984 -1.12E-05
    22 OT DIIS     0.80E-01    6.1     0.00003021      -938.6284995887 -1.42E-05
    23 OT DIIS     0.80E-01    6.1     0.00002889      -938.6285086630 -9.07E-06
    24 OT DIIS     0.80E-01    6.1     0.00002472      -938.6285196494 -1.10E-05
    25 OT DIIS     0.80E-01    6.1     0.00002334      -938.6285254099 -5.76E-06
    26 OT DIIS     0.80E-01    6.1     0.00001977      -938.6285314333 -6.02E-06
    27 OT DIIS     0.80E-01    6.1     0.00001747      -938.6285378862 -6.45E-06
    28 OT DIIS     0.80E-01    6.1     0.00001786      -938.6285417367 -3.85E-06
    29 OT DIIS     0.80E-01    6.1     0.00001662      -938.6285442775 -2.54E-06
    30 OT DIIS     0.80E-01    6.1     0.00001302      -938.6285464844 -2.21E-06
    31 OT DIIS     0.80E-01    6.1     0.00001200      -938.6285478702 -1.39E-06
    32 OT DIIS     0.80E-01    6.1     0.00001046      -938.6285493606 -1.49E-06
    33 OT DIIS     0.80E-01    6.1     0.00000968      -938.6285499842 -6.24E-07

  *** SCF run converged in    33 steps ***


  Electronic density on regular grids:       -423.9999968085        0.0000031915
  Core density on regular grids:              423.9999999738       -0.0000000262
  Total charge density on r-space grids:        0.0000031653
  Total charge density g-space grids:           0.0000031653

  Overlap energy of the core charge distribution:               0.00000006231965
  Self energy of the core charge distribution:              -2435.54055198066590
  Core Hamiltonian energy:                                    709.27120573193224
  Hartree energy:                                            1010.72055386688453
  Exchange-correlation energy:                               -223.07975766468462

  Total energy:                                              -938.62854998421426

 ENERGY| Total FORCE_EVAL ( QS ) energy [hartree]           -938.628550678918714

 Number of electrons:                                                        424
 Number of occupied orbitals:                                                212
 Number of molecular orbitals:                                               212

 Number of orbital functions:                                                326
 Number of independent orbital functions:                                    326

 Extrapolation method: ASPC


 SCF WAVEFUNCTION OPTIMIZATION

  ----------------------------------- OT ---------------------------------------
  Minimizer      : DIIS                : direct inversion
                                         in the iterative subspace
                                         using   7 DIIS vectors
                                         safer DIIS on
  Preconditioner : FULL_SINGLE_INVERSE : inversion of 
                                         H + eS - 2*(Sc)(c^T*H*c+const)(Sc)^T
  Precond_solver : DEFAULT
  stepsize       :    0.08000000                  energy_gap     :    0.08000000
  eps_taylor     :   0.10000E-15                  max_taylor     :             4
  ----------------------------------- OT ---------------------------------------

  Step     Update method      Time    Convergence         Total energy    Change
  ------------------------------------------------------------------------------
     1 OT DIIS     0.80E-01    4.9     0.01214153      -937.8835241520 -9.38E+02
     2 OT DIIS     0.80E-01    6.1     0.00907376      -938.3238555199 -4.40E-01
     3 OT DIIS     0.80E-01    6.1     0.00556160      -938.5098124585 -1.86E-01
     4 OT DIIS     0.80E-01    6.1     0.00466841      -938.6166048193 -1.07E-01
     5 OT DIIS     0.80E-01    6.1     0.00186703      -938.6588943106 -4.23E-02
     6 OT DIIS     0.80E-01    6.1     0.00101879      -938.6652805578 -6.39E-03
     7 OT DIIS     0.80E-01    6.1     0.00064865      -938.6675677731 -2.29E-03
     8 OT DIIS     0.80E-01    6.1     0.00044992      -938.6690136682 -1.45E-03
     9 OT DIIS     0.80E-01    6.1     0.00026518      -938.6697577076 -7.44E-04
    10 OT DIIS     0.80E-01    6.1     0.00021082      -938.6701666584 -4.09E-04
    11 OT DIIS     0.80E-01    6.1     0.00017658      -938.6705199592 -3.53E-04
    12 OT DIIS     0.80E-01    6.1     0.00014138      -938.6708976465 -3.78E-04
    13 OT DIIS     0.80E-01    6.1     0.00011673      -938.6711238119 -2.26E-04
    14 OT DIIS     0.80E-01    6.1     0.00010451      -938.6712763435 -1.53E-04
    15 OT DIIS     0.80E-01    6.1     0.00008561      -938.6714153631 -1.39E-04
    16 OT DIIS     0.80E-01    6.1     0.00007597      -938.6715021185 -8.68E-05
    17 OT DIIS     0.80E-01    6.1     0.00006872      -938.6715570009 -5.49E-05
    18 OT DIIS     0.80E-01    6.1     0.00006237      -938.6716096501 -5.26E-05
    19 OT DIIS     0.80E-01    6.1     0.00005709      -938.6716700663 -6.04E-05
    20 OT DIIS     0.80E-01    6.1     0.00005199      -938.6717243775 -5.43E-05
    21 OT DIIS     0.80E-01    6.1     0.00004886      -938.6717630359 -3.87E-05
    22 OT DIIS     0.80E-01    6.1     0.00004597      -938.6718019017 -3.89E-05
    23 OT DIIS     0.80E-01    6.7     0.00004250      -938.6718387009 -3.68E-05
    24 OT DIIS     0.80E-01    6.2     0.00004028      -938.6718670069 -2.83E-05
    25 OT DIIS     0.80E-01    6.1     0.00003887      -938.6718927509 -2.57E-05
    26 OT DIIS     0.80E-01    6.1     0.00003730      -938.6719187551 -2.60E-05
    27 OT DIIS     0.80E-01    7.1     0.00003575      -938.6719452959 -2.65E-05
    28 OT DIIS     0.80E-01    6.1     0.00003476      -938.6719635161 -1.82E-05
    29 OT DIIS     0.80E-01    6.1     0.00003426      -938.6719815561 -1.80E-05
    30 OT DIIS     0.80E-01    6.1     0.00003376      -938.6719989077 -1.74E-05
    31 OT DIIS     0.80E-01    6.1     0.00003322      -938.6720155931 -1.67E-05
    32 OT DIIS     0.80E-01    6.1     0.00003295      -938.6720304316 -1.48E-05
    33 OT DIIS     0.80E-01    6.1     0.00003276      -938.6720423901 -1.20E-05
    34 OT DIIS     0.80E-01    6.1     0.00003261      -938.6720618529 -1.95E-05
    35 OT DIIS     0.80E-01    6.1     0.00003245      -938.6720691975 -7.34E-06
    36 OT DIIS     0.80E-01    6.1     0.00003234      -938.6720827894 -1.36E-05
    37 OT DIIS     0.80E-01    6.1     0.00003229      -938.6720936334 -1.08E-05
    38 OT DIIS     0.80E-01    6.1     0.00003224      -938.6721075092 -1.39E-05
    39 OT DIIS     0.80E-01    6.1     0.00003223      -938.6721134158 -5.91E-06
    40 OT DIIS     0.80E-01    6.1     0.00003217      -938.6721210973 -7.68E-06
    41 OT SD       0.80E-01    6.1     0.00003220      -938.6721399164 -1.88E-05
    42 OT DIIS     0.80E-01    6.1     0.00003227      -938.6721456118 -5.70E-06
    43 OT DIIS     0.80E-01    6.1     0.00003209      -938.6721634678 -1.79E-05
    44 OT DIIS     0.80E-01    6.1     0.00003232      -938.6721904998 -2.70E-05
    45 OT DIIS     0.80E-01    6.1     0.00003206      -938.6722101402 -1.96E-05
    46 OT SD       0.80E-01    6.1     0.00003165      -938.6722443500 -3.42E-05
    47 OT DIIS     0.80E-01    6.1     0.00003229      -938.6722496678 -5.32E-06
    48 OT DIIS     0.80E-01    6.1     0.00009832      -938.6722815064 -3.18E-05
    49 OT DIIS     0.80E-01    6.1     0.00009810      -938.6723593186 -7.78E-05
    50 OT SD       0.80E-01    6.1     0.00013666      -938.6722518412  1.07E-04
    51 OT DIIS     0.80E-01    6.1     0.00010843      -938.6722769392 -2.51E-05
    52 OT DIIS     0.80E-01    6.1     0.00004504      -938.6723818148 -1.05E-04
    53 OT DIIS     0.80E-01    6.1     0.00013647      -938.6723986475 -1.68E-05
    54 OT DIIS     0.80E-01    6.1     0.00007247      -938.6723558609  4.28E-05
    55 OT DIIS     0.80E-01    6.1     0.00002884      -938.6724138701 -5.80E-05
    56 OT DIIS     0.80E-01    6.1     0.00002588      -938.6724208353 -6.97E-06
    57 OT DIIS     0.80E-01    6.1     0.00002229      -938.6724244946 -3.66E-06
    58 OT DIIS     0.80E-01    6.1     0.00004172      -938.6724349932 -1.05E-05
    59 OT SD       0.80E-01    6.1     0.00001423      -938.6724378545 -2.86E-06
    60 OT DIIS     0.80E-01    6.1     0.00001341      -938.6724383010 -4.47E-07
    61 OT DIIS     0.80E-01    6.1     0.00000683      -938.6724402273 -1.93E-06

  *** SCF run converged in    61 steps ***


  Electronic density on regular grids:       -423.9999951726        0.0000048274
  Core density on regular grids:              423.9999999739       -0.0000000261
  Total charge density on r-space grids:        0.0000048013
  Total charge density g-space grids:           0.0000048013

  Overlap energy of the core charge distribution:               0.00000006353942
  Self energy of the core charge distribution:              -2435.54055198066590
  Core Hamiltonian energy:                                    709.25873557057434
  Hartree energy:                                            1010.72806324106239
  Exchange-correlation energy:                               -223.11868712184469

  Total energy:                                              -938.67244022733428

 ENERGY| Total FORCE_EVAL ( QS ) energy [hartree]           -938.672440915931475

 OPT| **************************************************************************
 OPT| Step number                                                             44
 OPT| Optimization method                                                  LBFGS
 OPT| Total energy [hartree]                                     -938.6724409159
 OPT| Effective energy change [hartree]                            -0.0005081778
 OPT| Decrease in energy                                                     YES
 OPT| Used time [s]                                                      590.161
 OPT|
 OPT| Maximum step size                                             0.0565270044
 OPT| Convergence limit for maximum step size                       0.0030000000
 OPT| Maximum step size is converged                                          NO
 OPT|
 OPT| RMS step size                                                 0.0102082245
 OPT| Convergence limit for RMS step size                           0.0015000000
 OPT| RMS step size is converged                                              NO
 OPT|
 OPT| Maximum gradient                                              0.0131038012
 OPT| Convergence limit for maximum gradient                        0.0010000000
 OPT| Maximum gradient is converged                                           NO
 OPT|
 OPT| RMS gradient                                                  0.0022176725
 OPT| Convergence limit for RMS gradient                            0.0003000000
 OPT| RMS gradient is converged                                               NO
 OPT| **************************************************************************
 OPT| Estimated peak process memory after this step [MiB]                   1796

 --------------------------
 OPTIMIZATION STEP:     45
 --------------------------

 Number of electrons:                                                        424
 Number of occupied orbitals:                                                212
 Number of molecular orbitals:                                               212

 Number of orbital functions:                                                326
 Number of independent orbital functions:                                    326

 Extrapolation method: ASPC


 SCF WAVEFUNCTION OPTIMIZATION

  ----------------------------------- OT ---------------------------------------
  Minimizer      : DIIS                : direct inversion
                                         in the iterative subspace
                                         using   7 DIIS vectors
                                         safer DIIS on
  Preconditioner : FULL_SINGLE_INVERSE : inversion of 
                                         H + eS - 2*(Sc)(c^T*H*c+const)(Sc)^T
  Precond_solver : DEFAULT
  stepsize       :    0.08000000                  energy_gap     :    0.08000000
  eps_taylor     :   0.10000E-15                  max_taylor     :             4
  ----------------------------------- OT ---------------------------------------

  Step     Update method      Time    Convergence         Total energy    Change
  ------------------------------------------------------------------------------
     1 OT DIIS     0.80E-01    4.9     0.01263881      -937.9609277820 -9.38E+02
     2 OT DIIS     0.80E-01    6.1     0.00822904      -938.3886127406 -4.28E-01
     3 OT DIIS     0.80E-01    6.1     0.00586979      -938.5345827688 -1.46E-01
     4 OT DIIS     0.80E-01    6.1     0.00409184      -938.6087587500 -7.42E-02
     5 OT DIIS     0.80E-01    6.1     0.00256477      -938.6484053534 -3.96E-02
     6 OT DIIS     0.80E-01    6.1     0.00128833      -938.6618458095 -1.34E-02
     7 OT DIIS     0.80E-01    6.1     0.00073921      -938.6659109292 -4.07E-03
     8 OT DIIS     0.80E-01    6.1     0.00050520      -938.6678679423 -1.96E-03
     9 OT DIIS     0.80E-01    6.1     0.00039752      -938.6688784417 -1.01E-03
    10 OT DIIS     0.80E-01    6.1     0.00031523      -938.6698969563 -1.02E-03
    11 OT DIIS     0.80E-01    6.1     0.00025793      -938.6706493662 -7.52E-04
    12 OT DIIS     0.80E-01    6.1     0.00023337      -938.6713116648 -6.62E-04
    13 OT DIIS     0.80E-01    6.1     0.00018110      -938.6718534873 -5.42E-04
    14 OT DIIS     0.80E-01    6.1     0.00015260      -938.6721661759 -3.13E-04
    15 OT DIIS     0.80E-01    6.1     0.00013226      -938.6723926668 -2.26E-04
    16 OT DIIS     0.80E-01    6.1     0.00012172      -938.6725729926 -1.80E-04
    17 OT DIIS     0.80E-01    6.1     0.00010064      -938.6727461463 -1.73E-04
    18 OT DIIS     0.80E-01    6.1     0.00008325      -938.6728737384 -1.28E-04
    19 OT DIIS     0.80E-01    6.1     0.00007497      -938.6729564853 -8.27E-05
    20 OT DIIS     0.80E-01    6.1     0.00006912      -938.6730332040 -7.67E-05
    21 OT DIIS     0.80E-01    6.1     0.00006200      -938.6731020654 -6.89E-05
    22 OT DIIS     0.80E-01    6.1     0.00005714      -938.6731583841 -5.63E-05
    23 OT DIIS     0.80E-01    6.1     0.00005474      -938.6732025713 -4.42E-05
    24 OT DIIS     0.80E-01    6.1     0.00005063      -938.6732375183 -3.49E-05
    25 OT DIIS     0.80E-01    6.1     0.00004755      -938.6732786164 -4.11E-05
    26 OT DIIS     0.80E-01    6.1     0.00004563      -938.6733035964 -2.50E-05
    27 OT DIIS     0.80E-01    6.1     0.00004256      -938.6733452597 -4.17E-05
    28 OT DIIS     0.80E-01    6.1     0.00004117      -938.6733769684 -3.17E-05
    29 OT DIIS     0.80E-01    6.1     0.00003931      -938.6733990970 -2.21E-05
    30 OT DIIS     0.80E-01    6.1     0.00003741      -938.6734235395 -2.44E-05
    31 OT DIIS     0.80E-01    6.1     0.00003642      -938.6734412045 -1.77E-05
    32 OT DIIS     0.80E-01    6.1     0.00003554      -938.6734624365 -2.12E-05
    33 OT DIIS     0.80E-01    6.1     0.00003541      -938.6734784331 -1.60E-05
    34 OT DIIS     0.80E-01    6.1     0.00003363      -938.6734972935 -1.89E-05
    35 OT DIIS     0.80E-01    6.1     0.00003297      -938.6735163539 -1.91E-05
    36 OT DIIS     0.80E-01    6.1     0.00003247      -938.6735290459 -1.27E-05
    37 OT DIIS     0.80E-01    6.1     0.00003135      -938.6735521496 -2.31E-05
    38 OT DIIS     0.80E-01    6.1     0.00003139      -938.6735633579 -1.12E-05
    39 OT DIIS     0.80E-01    6.1     0.00002965      -938.6735850078 -2.16E-05
    40 OT DIIS     0.80E-01    6.1     0.00002892      -938.6735999562 -1.49E-05
    41 OT DIIS     0.80E-01    6.1     0.00002833      -938.6736244747 -2.45E-05
    42 OT DIIS     0.80E-01    6.1     0.00003088      -938.6736260920 -1.62E-06
    43 OT DIIS     0.80E-01    6.1     0.00002441      -938.6736538630 -2.78E-05
    44 OT SD       0.80E-01    6.1     0.00002333      -938.6736714157 -1.76E-05
    45 OT DIIS     0.80E-01    6.1     0.00002516      -938.6736738977 -2.48E-06
    46 OT DIIS     0.80E-01    6.1     0.00002004      -938.6736934010 -1.95E-05
    47 OT DIIS     0.80E-01    6.1     0.00001711      -938.6737033091 -9.91E-06
    48 OT DIIS     0.80E-01    6.1     0.00001635      -938.6737092530 -5.94E-06
    49 OT DIIS     0.80E-01    6.1     0.00001694      -938.6737124212 -3.17E-06
    50 OT DIIS     0.80E-01    6.1     0.00001300      -938.6737173153 -4.89E-06
    51 OT DIIS     0.80E-01    6.1     0.00001191      -938.6737206742 -3.36E-06
    52 OT DIIS     0.80E-01    6.1     0.00001171      -938.6737221720 -1.50E-06
    53 OT DIIS     0.80E-01    6.1     0.00001105      -938.6737226690 -4.97E-07
    54 OT DIIS     0.80E-01    6.1     0.00000968      -938.6737247260 -2.06E-06

  *** SCF run converged in    54 steps ***


  Electronic density on regular grids:       -423.9999952074        0.0000047926
  Core density on regular grids:              423.9999999740       -0.0000000260
  Total charge density on r-space grids:        0.0000047666
  Total charge density g-space grids:           0.0000047666

  Overlap energy of the core charge distribution:               0.00000006403633
  Self energy of the core charge distribution:              -2435.54055198066590
  Core Hamiltonian energy:                                    709.28120896588996
  Hartree energy:                                            1010.71010836552819
  Exchange-correlation energy:                               -223.12449014075449

  Total energy:                                              -938.67372472596594

 ENERGY| Total FORCE_EVAL ( QS ) energy [hartree]           -938.673725662706602

 OPT| **************************************************************************
 OPT| Step number                                                             45
 OPT| Optimization method                                                  LBFGS
 OPT| Total energy [hartree]                                     -938.6737256627
 OPT| Effective energy change [hartree]                            -0.0012847468
 OPT| Decrease in energy                                                     YES
 OPT| Used time [s]                                                      336.880
 OPT|
 OPT| Maximum step size                                             0.0338910198
 OPT| Convergence limit for maximum step size                       0.0030000000
 OPT| Maximum step size is converged                                          NO
 OPT|
 OPT| RMS step size                                                 0.0061500512
 OPT| Convergence limit for RMS step size                           0.0015000000
 OPT| RMS step size is converged                                              NO
 OPT|
 OPT| Maximum gradient                                              0.0057034481
 OPT| Convergence limit for maximum gradient                        0.0010000000
 OPT| Maximum gradient is converged                                           NO
 OPT|
 OPT| RMS gradient                                                  0.0014609340
 OPT| Convergence limit for RMS gradient                            0.0003000000
 OPT| RMS gradient is converged                                               NO
 OPT| **************************************************************************
 OPT| Estimated peak process memory after this step [MiB]                   1796

 --------------------------
 OPTIMIZATION STEP:     46
 --------------------------

 Number of electrons:                                                        424
 Number of occupied orbitals:                                                212
 Number of molecular orbitals:                                               212

 Number of orbital functions:                                                326
 Number of independent orbital functions:                                    326

 Extrapolation method: ASPC


 SCF WAVEFUNCTION OPTIMIZATION

  ----------------------------------- OT ---------------------------------------
  Minimizer      : DIIS                : direct inversion
                                         in the iterative subspace
                                         using   7 DIIS vectors
                                         safer DIIS on
  Preconditioner : FULL_SINGLE_INVERSE : inversion of 
                                         H + eS - 2*(Sc)(c^T*H*c+const)(Sc)^T
  Precond_solver : DEFAULT
  stepsize       :    0.08000000                  energy_gap     :    0.08000000
  eps_taylor     :   0.10000E-15                  max_taylor     :             4
  ----------------------------------- OT ---------------------------------------

  Step     Update method      Time    Convergence         Total energy    Change
  ------------------------------------------------------------------------------
     1 OT DIIS     0.80E-01    4.9     0.00756145      -938.3835464049 -9.38E+02
     2 OT DIIS     0.80E-01    6.1     0.00589022      -938.5553827168 -1.72E-01
     3 OT DIIS     0.80E-01    6.1     0.00372894      -938.6194225427 -6.40E-02
     4 OT DIIS     0.80E-01    6.1     0.00358023      -938.6551977324 -3.58E-02
     5 OT DIIS     0.80E-01    6.1     0.00119880      -938.6699494769 -1.48E-02
     6 OT DIIS     0.80E-01    6.1     0.00074499      -938.6722603594 -2.31E-03
     7 OT DIIS     0.80E-01    6.1     0.00051956      -938.6731111244 -8.51E-04
     8 OT DIIS     0.80E-01    6.1     0.00025316      -938.6737151896 -6.04E-04
     9 OT DIIS     0.80E-01    6.1     0.00017207      -938.6739479777 -2.33E-04
    10 OT DIIS     0.80E-01    6.1     0.00013857      -938.6740896050 -1.42E-04
    11 OT DIIS     0.80E-01    6.1     0.00012073      -938.6741903911 -1.01E-04
    12 OT DIIS     0.80E-01    6.1     0.00010159      -938.6742778666 -8.75E-05
    13 OT DIIS     0.80E-01    6.1     0.00010167      -938.6743257736 -4.79E-05
    14 OT DIIS     0.80E-01    6.1     0.00007326      -938.6743666131 -4.08E-05
    15 OT DIIS     0.80E-01    6.1     0.00006709      -938.6743981217 -3.15E-05
    16 OT DIIS     0.80E-01    6.1     0.00005715      -938.6744204797 -2.24E-05
    17 OT DIIS     0.80E-01    6.1     0.00004781      -938.6744439058 -2.34E-05
    18 OT DIIS     0.80E-01    6.1     0.00004441      -938.6744621009 -1.82E-05
    19 OT DIIS     0.80E-01    6.1     0.00004204      -938.6744759139 -1.38E-05
    20 OT DIIS     0.80E-01    6.1     0.00003965      -938.6744900480 -1.41E-05
    21 OT DIIS     0.80E-01    6.1     0.00003968      -938.6745044905 -1.44E-05
    22 OT DIIS     0.80E-01    6.1     0.00003770      -938.6745164190 -1.19E-05
    23 OT DIIS     0.80E-01    6.1     0.00003639      -938.6745323110 -1.59E-05
    24 OT DIIS     0.80E-01    6.1     0.00003483      -938.6745440488 -1.17E-05
    25 OT DIIS     0.80E-01    6.1     0.00003325      -938.6745608230 -1.68E-05
    26 OT DIIS     0.80E-01    6.1     0.00003256      -938.6745755160 -1.47E-05
    27 OT DIIS     0.80E-01    6.1     0.00003197      -938.6745910463 -1.55E-05
    28 OT DIIS     0.80E-01    6.1     0.00003089      -938.6746077002 -1.67E-05
    29 OT DIIS     0.80E-01    6.1     0.00003064      -938.6746274695 -1.98E-05
    30 OT DIIS     0.80E-01    6.1     0.00003019      -938.6746401968 -1.27E-05
    31 OT DIIS     0.80E-01    6.1     0.00002984      -938.6746640037 -2.38E-05
    32 OT DIIS     0.80E-01    6.1     0.00002722      -938.6746693528 -5.35E-06
    33 OT DIIS     0.80E-01    6.1     0.00002489      -938.6746939850 -2.46E-05
    34 OT DIIS     0.80E-01    6.1     0.00002446      -938.6747092617 -1.53E-05
    35 OT DIIS     0.80E-01    6.1     0.00003052      -938.6747244200 -1.52E-05
    36 OT DIIS     0.80E-01    6.1     0.00002415      -938.6747260691 -1.65E-06
    37 OT DIIS     0.80E-01    6.1     0.00001897      -938.6747278832 -1.81E-06
    38 OT DIIS     0.80E-01    6.1     0.00002698      -938.6747318718 -3.99E-06
    39 OT DIIS     0.80E-01    6.1     0.00001022      -938.6747337474 -1.88E-06
    40 OT DIIS     0.80E-01    6.1     0.00001016      -938.6747344133 -6.66E-07
    41 OT DIIS     0.80E-01    6.1     0.00000741      -938.6747348828 -4.69E-07

  *** SCF run converged in    41 steps ***


  Electronic density on regular grids:       -423.9999952675        0.0000047325
  Core density on regular grids:              423.9999999739       -0.0000000261
  Total charge density on r-space grids:        0.0000047065
  Total charge density g-space grids:           0.0000047065

  Overlap energy of the core charge distribution:               0.00000006245214
  Self energy of the core charge distribution:              -2435.54055198066590
  Core Hamiltonian energy:                                    709.28602576072728
  Hartree energy:                                            1010.70317297555073
  Exchange-correlation energy:                               -223.12338170083046

  Total energy:                                              -938.67473488276619

 ENERGY| Total FORCE_EVAL ( QS ) energy [hartree]           -938.674735321475282

 OPT| **************************************************************************
 OPT| Step number                                                             46
 OPT| Optimization method                                                  LBFGS
 OPT| Total energy [hartree]                                     -938.6747353215
 OPT| Effective energy change [hartree]                            -0.0010096588
 OPT| Decrease in energy                                                     YES
 OPT| Used time [s]                                                      257.502
 OPT|
 OPT| Maximum step size                                             0.0423823959
 OPT| Convergence limit for maximum step size                       0.0030000000
 OPT| Maximum step size is converged                                          NO
 OPT|
 OPT| RMS step size                                                 0.0074510332
 OPT| Convergence limit for RMS step size                           0.0015000000
 OPT| RMS step size is converged                                              NO
 OPT|
 OPT| Maximum gradient                                              0.0043233992
 OPT| Convergence limit for maximum gradient                        0.0010000000
 OPT| Maximum gradient is converged                                           NO
 OPT|
 OPT| RMS gradient                                                  0.0011716166
 OPT| Convergence limit for RMS gradient                            0.0003000000
 OPT| RMS gradient is converged                                               NO
 OPT| **************************************************************************
 OPT| Estimated peak process memory after this step [MiB]                   1796

 --------------------------
 OPTIMIZATION STEP:     47
 --------------------------

 Number of electrons:                                                        424
 Number of occupied orbitals:                                                212
 Number of molecular orbitals:                                               212

 Number of orbital functions:                                                326
 Number of independent orbital functions:                                    326

 Extrapolation method: ASPC


 SCF WAVEFUNCTION OPTIMIZATION

  ----------------------------------- OT ---------------------------------------
  Minimizer      : DIIS                : direct inversion
                                         in the iterative subspace
                                         using   7 DIIS vectors
                                         safer DIIS on
  Preconditioner : FULL_SINGLE_INVERSE : inversion of 
                                         H + eS - 2*(Sc)(c^T*H*c+const)(Sc)^T
  Precond_solver : DEFAULT
  stepsize       :    0.08000000                  energy_gap     :    0.08000000
  eps_taylor     :   0.10000E-15                  max_taylor     :             4
  ----------------------------------- OT ---------------------------------------

  Step     Update method      Time    Convergence         Total energy    Change
  ------------------------------------------------------------------------------
     1 OT DIIS     0.80E-01    4.9     0.00198092      -938.6531764185 -9.39E+02
     2 OT DIIS     0.80E-01    6.1     0.00120065      -938.6680504855 -1.49E-02
     3 OT DIIS     0.80E-01    6.1     0.00151991      -938.6712127798 -3.16E-03
     4 OT DIIS     0.80E-01    6.4     0.00079970      -938.6741729918 -2.96E-03
     5 OT DIIS     0.80E-01    6.2     0.00035250      -938.6750912907 -9.18E-04
     6 OT DIIS     0.80E-01    6.1     0.00028498      -938.6753279794 -2.37E-04
     7 OT DIIS     0.80E-01    6.1     0.00013824      -938.6754372011 -1.09E-04
     8 OT DIIS     0.80E-01    6.1     0.00009033      -938.6754882664 -5.11E-05
     9 OT DIIS     0.80E-01    6.1     0.00006397      -938.6755147015 -2.64E-05
    10 OT DIIS     0.80E-01    6.1     0.00005158      -938.6755332671 -1.86E-05
    11 OT DIIS     0.80E-01    6.1     0.00004666      -938.6755459500 -1.27E-05
    12 OT DIIS     0.80E-01    6.1     0.00004192      -938.6755562331 -1.03E-05
    13 OT DIIS     0.80E-01    6.1     0.00003727      -938.6755624539 -6.22E-06
    14 OT DIIS     0.80E-01    6.1     0.00003229      -938.6755709107 -8.46E-06
    15 OT DIIS     0.80E-01    6.1     0.00003064      -938.6755766375 -5.73E-06
    16 OT DIIS     0.80E-01    6.1     0.00002629      -938.6755840019 -7.36E-06
    17 OT DIIS     0.80E-01    6.1     0.00002305      -938.6755914150 -7.41E-06
    18 OT DIIS     0.80E-01    6.1     0.00002122      -938.6755970757 -5.66E-06
    19 OT DIIS     0.80E-01    6.2     0.00001929      -938.6756016214 -4.55E-06
    20 OT DIIS     0.80E-01    6.1     0.00001863      -938.6756054159 -3.79E-06
    21 OT DIIS     0.80E-01    6.2     0.00001840      -938.6756084456 -3.03E-06
    22 OT DIIS     0.80E-01    6.1     0.00001614      -938.6756118507 -3.41E-06
    23 OT DIIS     0.80E-01    6.1     0.00001555      -938.6756144198 -2.57E-06
    24 OT DIIS     0.80E-01    6.1     0.00001342      -938.6756163756 -1.96E-06
    25 OT DIIS     0.80E-01    6.1     0.00001169      -938.6756185969 -2.22E-06
    26 OT DIIS     0.80E-01    6.1     0.00001098      -938.6756204985 -1.90E-06
    27 OT DIIS     0.80E-01    6.8     0.00001034      -938.6756219132 -1.41E-06
    28 OT DIIS     0.80E-01    6.1     0.00000960      -938.6756229140 -1.00E-06

  *** SCF run converged in    28 steps ***


  Electronic density on regular grids:       -423.9999952886        0.0000047114
  Core density on regular grids:              423.9999999738       -0.0000000262
  Total charge density on r-space grids:        0.0000046852
  Total charge density g-space grids:           0.0000046852

  Overlap energy of the core charge distribution:               0.00000006316522
  Self energy of the core charge distribution:              -2435.54055198066590
  Core Hamiltonian energy:                                    709.28372909035261
  Hartree energy:                                            1010.70373677521923
  Exchange-correlation energy:                               -223.12253686202897

  Total energy:                                              -938.67562291395768

 ENERGY| Total FORCE_EVAL ( QS ) energy [hartree]           -938.675623595776756

 OPT| **************************************************************************
 OPT| Step number                                                             47
 OPT| Optimization method                                                  LBFGS
 OPT| Total energy [hartree]                                     -938.6756235958
 OPT| Effective energy change [hartree]                            -0.0008882743
 OPT| Decrease in energy                                                     YES
 OPT| Used time [s]                                                      180.661
 OPT|
 OPT| Maximum step size                                             0.0520478320
 OPT| Convergence limit for maximum step size                       0.0030000000
 OPT| Maximum step size is converged                                          NO
 OPT|
 OPT| RMS step size                                                 0.0091786371
 OPT| Convergence limit for RMS step size                           0.0015000000
 OPT| RMS step size is converged                                              NO
 OPT|
 OPT| Maximum gradient                                              0.0044071778
 OPT| Convergence limit for maximum gradient                        0.0010000000
 OPT| Maximum gradient is converged                                           NO
 OPT|
 OPT| RMS gradient                                                  0.0012115901
 OPT| Convergence limit for RMS gradient                            0.0003000000
 OPT| RMS gradient is converged                                               NO
 OPT| **************************************************************************
 OPT| Estimated peak process memory after this step [MiB]                   1796

 --------------------------
 OPTIMIZATION STEP:     48
 --------------------------

 Number of electrons:                                                        424
 Number of occupied orbitals:                                                212
 Number of molecular orbitals:                                               212

 Number of orbital functions:                                                326
 Number of independent orbital functions:                                    326

 Extrapolation method: ASPC


 SCF WAVEFUNCTION OPTIMIZATION

  ----------------------------------- OT ---------------------------------------
  Minimizer      : DIIS                : direct inversion
                                         in the iterative subspace
                                         using   7 DIIS vectors
                                         safer DIIS on
  Preconditioner : FULL_SINGLE_INVERSE : inversion of 
                                         H + eS - 2*(Sc)(c^T*H*c+const)(Sc)^T
  Precond_solver : DEFAULT
  stepsize       :    0.08000000                  energy_gap     :    0.08000000
  eps_taylor     :   0.10000E-15                  max_taylor     :             4
  ----------------------------------- OT ---------------------------------------

  Step     Update method      Time    Convergence         Total energy    Change
  ------------------------------------------------------------------------------
     1 OT DIIS     0.80E-01    4.9     0.00039463      -938.6757244874 -9.39E+02
     2 OT DIIS     0.80E-01    6.1     0.00025185      -938.6762876968 -5.63E-04
     3 OT DIIS     0.80E-01    6.1     0.00026417      -938.6764166594 -1.29E-04
     4 OT DIIS     0.80E-01    6.1     0.00017304      -938.6765307782 -1.14E-04
     5 OT DIIS     0.80E-01    6.1     0.00008481      -938.6765693452 -3.86E-05
     6 OT DIIS     0.80E-01    6.1     0.00005247      -938.6765849861 -1.56E-05
     7 OT DIIS     0.80E-01    6.1     0.00003905      -938.6765918452 -6.86E-06
     8 OT DIIS     0.80E-01    6.1     0.00002852      -938.6765969416 -5.10E-06
     9 OT DIIS     0.80E-01    6.1     0.00002493      -938.6766014615 -4.52E-06
    10 OT DIIS     0.80E-01    6.1     0.00002170      -938.6766045668 -3.11E-06
    11 OT DIIS     0.80E-01    6.1     0.00001865      -938.6766088986 -4.33E-06
    12 OT DIIS     0.80E-01    6.1     0.00001822      -938.6766117590 -2.86E-06
    13 OT DIIS     0.80E-01    6.1     0.00001693      -938.6766136535 -1.89E-06
    14 OT DIIS     0.80E-01    6.1     0.00001239      -938.6766155577 -1.90E-06
    15 OT DIIS     0.80E-01    6.1     0.00001097      -938.6766166136 -1.06E-06
    16 OT DIIS     0.80E-01    6.1     0.00000888      -938.6766172877 -6.74E-07

  *** SCF run converged in    16 steps ***


  Electronic density on regular grids:       -423.9999952318        0.0000047682
  Core density on regular grids:              423.9999999739       -0.0000000261
  Total charge density on r-space grids:        0.0000047421
  Total charge density g-space grids:           0.0000047421

  Overlap energy of the core charge distribution:               0.00000006129517
  Self energy of the core charge distribution:              -2435.54055198066590
  Core Hamiltonian energy:                                    709.26436399393674
  Hartree energy:                                            1010.71613699465604
  Exchange-correlation energy:                               -223.11656635692441

  Total energy:                                              -938.67661728770213

 ENERGY| Total FORCE_EVAL ( QS ) energy [hartree]           -938.676617834001036

 OPT| **************************************************************************
 OPT| Step number                                                             48
 OPT| Optimization method                                                  LBFGS
 OPT| Total energy [hartree]                                     -938.6766178340
 OPT| Effective energy change [hartree]                            -0.0009942382
 OPT| Decrease in energy                                                     YES
 OPT| Used time [s]                                                      105.261
 OPT|
 OPT| Maximum step size                                             0.0515520530
 OPT| Convergence limit for maximum step size                       0.0030000000
 OPT| Maximum step size is converged                                          NO
 OPT|
 OPT| RMS step size                                                 0.0092750087
 OPT| Convergence limit for RMS step size                           0.0015000000
 OPT| RMS step size is converged                                              NO
 OPT|
 OPT| Maximum gradient                                              0.0061703088
 OPT| Convergence limit for maximum gradient                        0.0010000000
 OPT| Maximum gradient is converged                                           NO
 OPT|
 OPT| RMS gradient                                                  0.0011633682
 OPT| Convergence limit for RMS gradient                            0.0003000000
 OPT| RMS gradient is converged                                               NO
 OPT| **************************************************************************
 OPT| Estimated peak process memory after this step [MiB]                   1796

 --------------------------
 OPTIMIZATION STEP:     49
 --------------------------

 Number of electrons:                                                        424
 Number of occupied orbitals:                                                212
 Number of molecular orbitals:                                               212

 Number of orbital functions:                                                326
 Number of independent orbital functions:                                    326

 Extrapolation method: ASPC


 SCF WAVEFUNCTION OPTIMIZATION

  ----------------------------------- OT ---------------------------------------
  Minimizer      : DIIS                : direct inversion
                                         in the iterative subspace
                                         using   7 DIIS vectors
                                         safer DIIS on
  Preconditioner : FULL_SINGLE_INVERSE : inversion of 
                                         H + eS - 2*(Sc)(c^T*H*c+const)(Sc)^T
  Precond_solver : DEFAULT
  stepsize       :    0.08000000                  energy_gap     :    0.08000000
  eps_taylor     :   0.10000E-15                  max_taylor     :             4
  ----------------------------------- OT ---------------------------------------

  Step     Update method      Time    Convergence         Total energy    Change
  ------------------------------------------------------------------------------
     1 OT DIIS     0.80E-01    4.9     0.00025146      -938.6773219793 -9.39E+02
     2 OT DIIS     0.80E-01    6.1     0.00018327      -938.6775253046 -2.03E-04
     3 OT DIIS     0.80E-01    6.1     0.00021301      -938.6775581487 -3.28E-05
     4 OT DIIS     0.80E-01    6.1     0.00010225      -938.6776105189 -5.24E-05
     5 OT DIIS     0.80E-01    6.1     0.00005474      -938.6776317978 -2.13E-05
     6 OT DIIS     0.80E-01    6.1     0.00003719      -938.6776402506 -8.45E-06
     7 OT DIIS     0.80E-01    6.1     0.00002936      -938.6776447138 -4.46E-06
     8 OT DIIS     0.80E-01    6.1     0.00002220      -938.6776484212 -3.71E-06
     9 OT DIIS     0.80E-01    6.1     0.00002021      -938.6776518337 -3.41E-06
    10 OT DIIS     0.80E-01    6.1     0.00001787      -938.6776543618 -2.53E-06
    11 OT DIIS     0.80E-01    6.1     0.00001628      -938.6776577686 -3.41E-06
    12 OT DIIS     0.80E-01    6.1     0.00001706      -938.6776599419 -2.17E-06
    13 OT DIIS     0.80E-01    6.1     0.00001350      -938.6776618645 -1.92E-06
    14 OT DIIS     0.80E-01    6.1     0.00001130      -938.6776635625 -1.70E-06
    15 OT DIIS     0.80E-01    6.1     0.00001020      -938.6776647188 -1.16E-06
    16 OT DIIS     0.80E-01    6.1     0.00000894      -938.6776654664 -7.48E-07

  *** SCF run converged in    16 steps ***


  Electronic density on regular grids:       -423.9999950554        0.0000049446
  Core density on regular grids:              423.9999999739       -0.0000000261
  Total charge density on r-space grids:        0.0000049185
  Total charge density g-space grids:           0.0000049185

  Overlap energy of the core charge distribution:               0.00000006175320
  Self energy of the core charge distribution:              -2435.54055198066590
  Core Hamiltonian energy:                                    709.23976417691551
  Hartree energy:                                            1010.73415911474444
  Exchange-correlation energy:                               -223.11103683915951

  Total energy:                                              -938.67766546641212

 ENERGY| Total FORCE_EVAL ( QS ) energy [hartree]           -938.677666344429099

 OPT| **************************************************************************
 OPT| Step number                                                             49
 OPT| Optimization method                                                  LBFGS
 OPT| Total energy [hartree]                                     -938.6776663444
 OPT| Effective energy change [hartree]                            -0.0010485104
 OPT| Decrease in energy                                                     YES
 OPT| Used time [s]                                                      104.999
 OPT|
 OPT| Maximum step size                                             0.0537714578
 OPT| Convergence limit for maximum step size                       0.0030000000
 OPT| Maximum step size is converged                                          NO
 OPT|
 OPT| RMS step size                                                 0.0100254317
 OPT| Convergence limit for RMS step size                           0.0015000000
 OPT| RMS step size is converged                                              NO
 OPT|
 OPT| Maximum gradient                                              0.0100171130
 OPT| Convergence limit for maximum gradient                        0.0010000000
 OPT| Maximum gradient is converged                                           NO
 OPT|
 OPT| RMS gradient                                                  0.0014233958
 OPT| Convergence limit for RMS gradient                            0.0003000000
 OPT| RMS gradient is converged                                               NO
 OPT| **************************************************************************
 OPT| Estimated peak process memory after this step [MiB]                   1796

 --------------------------
 OPTIMIZATION STEP:     50
 --------------------------

 Number of electrons:                                                        424
 Number of occupied orbitals:                                                212
 Number of molecular orbitals:                                               212

 Number of orbital functions:                                                326
 Number of independent orbital functions:                                    326

 Extrapolation method: ASPC


 SCF WAVEFUNCTION OPTIMIZATION

  ----------------------------------- OT ---------------------------------------
  Minimizer      : DIIS                : direct inversion
                                         in the iterative subspace
                                         using   7 DIIS vectors
                                         safer DIIS on
  Preconditioner : FULL_SINGLE_INVERSE : inversion of 
                                         H + eS - 2*(Sc)(c^T*H*c+const)(Sc)^T
  Precond_solver : DEFAULT
  stepsize       :    0.08000000                  energy_gap     :    0.08000000
  eps_taylor     :   0.10000E-15                  max_taylor     :             4
  ----------------------------------- OT ---------------------------------------

  Step     Update method      Time    Convergence         Total energy    Change
  ------------------------------------------------------------------------------
     1 OT DIIS     0.80E-01    4.9     0.00033503      -938.6775906076 -9.39E+02
     2 OT DIIS     0.80E-01    6.1     0.00021547      -938.6779750771 -3.84E-04
     3 OT DIIS     0.80E-01    6.1     0.00018804      -938.6780697314 -9.47E-05
     4 OT DIIS     0.80E-01    6.1     0.00014997      -938.6781388920 -6.92E-05
     5 OT DIIS     0.80E-01    6.1     0.00006419      -938.6781660302 -2.71E-05
     6 OT DIIS     0.80E-01    6.1     0.00004227      -938.6781759228 -9.89E-06
     7 OT DIIS     0.80E-01    6.1     0.00003027      -938.6781797543 -3.83E-06
     8 OT DIIS     0.80E-01    6.1     0.00001864      -938.6781825519 -2.80E-06
     9 OT DIIS     0.80E-01    6.1     0.00001457      -938.6781841954 -1.64E-06
    10 OT DIIS     0.80E-01    6.1     0.00001148      -938.6781853088 -1.11E-06
    11 OT DIIS     0.80E-01    6.1     0.00001008      -938.6781863064 -9.98E-07
    12 OT DIIS     0.80E-01    6.1     0.00000931      -938.6781869285 -6.22E-07

  *** SCF run converged in    12 steps ***


  Electronic density on regular grids:       -423.9999948354        0.0000051646
  Core density on regular grids:              423.9999999739       -0.0000000261
  Total charge density on r-space grids:        0.0000051385
  Total charge density g-space grids:           0.0000051385

  Overlap energy of the core charge distribution:               0.00000006074067
  Self energy of the core charge distribution:              -2435.54055198066590
  Core Hamiltonian energy:                                    709.19275509455645
  Hartree energy:                                            1010.76796077872405
  Exchange-correlation energy:                               -223.09835088180753

  Total energy:                                              -938.67818692845219

 ENERGY| Total FORCE_EVAL ( QS ) energy [hartree]           -938.678187313843637

 Number of electrons:                                                        424
 Number of occupied orbitals:                                                212
 Number of molecular orbitals:                                               212

 Number of orbital functions:                                                326
 Number of independent orbital functions:                                    326

 Extrapolation method: ASPC


 SCF WAVEFUNCTION OPTIMIZATION

  ----------------------------------- OT ---------------------------------------
  Minimizer      : DIIS                : direct inversion
                                         in the iterative subspace
                                         using   7 DIIS vectors
                                         safer DIIS on
  Preconditioner : FULL_SINGLE_INVERSE : inversion of 
                                         H + eS - 2*(Sc)(c^T*H*c+const)(Sc)^T
  Precond_solver : DEFAULT
  stepsize       :    0.08000000                  energy_gap     :    0.08000000
  eps_taylor     :   0.10000E-15                  max_taylor     :             4
  ----------------------------------- OT ---------------------------------------

  Step     Update method      Time    Convergence         Total energy    Change
  ------------------------------------------------------------------------------
     1 OT DIIS     0.80E-01    4.9     0.00148901      -938.6669904027 -9.39E+02
     2 OT DIIS     0.80E-01    6.1     0.00098284      -938.6744819080 -7.49E-03
     3 OT DIIS     0.80E-01    6.1     0.00074221      -938.6764967809 -2.01E-03
     4 OT DIIS     0.80E-01    6.1     0.00045604      -938.6780332640 -1.54E-03
     5 OT DIIS     0.80E-01    6.1     0.00027320      -938.6783203726 -2.87E-04
     6 OT DIIS     0.80E-01    6.1     0.00014027      -938.6784509067 -1.31E-04
     7 OT DIIS     0.80E-01    6.1     0.00008880      -938.6785012365 -5.03E-05
     8 OT DIIS     0.80E-01    6.1     0.00006150      -938.6785250359 -2.38E-05
     9 OT DIIS     0.80E-01    6.1     0.00005261      -938.6785356418 -1.06E-05
    10 OT DIIS     0.80E-01    6.1     0.00003522      -938.6785436225 -7.98E-06
    11 OT DIIS     0.80E-01    6.1     0.00003187      -938.6785494111 -5.79E-06
    12 OT DIIS     0.80E-01    6.1     0.00002552      -938.6785542969 -4.89E-06
    13 OT DIIS     0.80E-01    6.1     0.00002391      -938.6785573828 -3.09E-06
    14 OT DIIS     0.80E-01    6.1     0.00002009      -938.6785601082 -2.73E-06
    15 OT DIIS     0.80E-01    6.1     0.00001759      -938.6785623331 -2.22E-06
    16 OT DIIS     0.80E-01    6.1     0.00001572      -938.6785647047 -2.37E-06
    17 OT DIIS     0.80E-01    6.1     0.00001524      -938.6785672206 -2.52E-06
    18 OT DIIS     0.80E-01    6.1     0.00001390      -938.6785687101 -1.49E-06
    19 OT DIIS     0.80E-01    6.1     0.00001249      -938.6785705645 -1.85E-06
    20 OT DIIS     0.80E-01    6.1     0.00001153      -938.6785720685 -1.50E-06
    21 OT DIIS     0.80E-01    6.1     0.00001085      -938.6785735512 -1.48E-06
    22 OT DIIS     0.80E-01    6.1     0.00001037      -938.6785748775 -1.33E-06
    23 OT DIIS     0.80E-01    6.1     0.00000931      -938.6785758356 -9.58E-07

  *** SCF run converged in    23 steps ***


  Electronic density on regular grids:       -423.9999948446        0.0000051554
  Core density on regular grids:              423.9999999740       -0.0000000260
  Total charge density on r-space grids:        0.0000051294
  Total charge density g-space grids:           0.0000051294

  Overlap energy of the core charge distribution:               0.00000006124622
  Self energy of the core charge distribution:              -2435.54055198066590
  Core Hamiltonian energy:                                    709.21935020012029
  Hartree energy:                                            1010.74833901878253
  Exchange-correlation energy:                               -223.10571313507552

  Total energy:                                              -938.67857583559226

 ENERGY| Total FORCE_EVAL ( QS ) energy [hartree]           -938.678576910019501

 OPT| **************************************************************************
 OPT| Step number                                                             50
 OPT| Optimization method                                                  LBFGS
 OPT| Total energy [hartree]                                     -938.6785769100
 OPT| Effective energy change [hartree]                            -0.0009105656
 OPT| Decrease in energy                                                     YES
 OPT| Used time [s]                                                      228.373
 OPT|
 OPT| Maximum step size                                             0.0456710389
 OPT| Convergence limit for maximum step size                       0.0030000000
 OPT| Maximum step size is converged                                          NO
 OPT|
 OPT| RMS step size                                                 0.0080772698
 OPT| Convergence limit for RMS step size                           0.0015000000
 OPT| RMS step size is converged                                              NO
 OPT|
 OPT| Maximum gradient                                              0.0094300967
 OPT| Convergence limit for maximum gradient                        0.0010000000
 OPT| Maximum gradient is converged                                           NO
 OPT|
 OPT| RMS gradient                                                  0.0013819962
 OPT| Convergence limit for RMS gradient                            0.0003000000
 OPT| RMS gradient is converged                                               NO
 OPT| **************************************************************************
 OPT| Estimated peak process memory after this step [MiB]                   1796

 --------------------------
 OPTIMIZATION STEP:     51
 --------------------------

 Number of electrons:                                                        424
 Number of occupied orbitals:                                                212
 Number of molecular orbitals:                                               212

 Number of orbital functions:                                                326
 Number of independent orbital functions:                                    326

 Extrapolation method: ASPC


 SCF WAVEFUNCTION OPTIMIZATION

  ----------------------------------- OT ---------------------------------------
  Minimizer      : DIIS                : direct inversion
                                         in the iterative subspace
                                         using   7 DIIS vectors
                                         safer DIIS on
  Preconditioner : FULL_SINGLE_INVERSE : inversion of 
                                         H + eS - 2*(Sc)(c^T*H*c+const)(Sc)^T
  Precond_solver : DEFAULT
  stepsize       :    0.08000000                  energy_gap     :    0.08000000
  eps_taylor     :   0.10000E-15                  max_taylor     :             4
  ----------------------------------- OT ---------------------------------------

  Step     Update method      Time    Convergence         Total energy    Change
  ------------------------------------------------------------------------------
     1 OT DIIS     0.80E-01    4.9     0.00219474      -938.6522717996 -9.39E+02
     2 OT DIIS     0.80E-01    6.1     0.00142383      -938.6694127085 -1.71E-02
     3 OT DIIS     0.80E-01    6.1     0.00120229      -938.6739069577 -4.49E-03
     4 OT DIIS     0.80E-01    6.1     0.00089339      -938.6772884874 -3.38E-03
     5 OT DIIS     0.80E-01    6.1     0.00036933      -938.6781808880 -8.92E-04
     6 OT DIIS     0.80E-01    6.1     0.00022686      -938.6785086246 -3.28E-04
     7 OT DIIS     0.80E-01    6.1     0.00017758      -938.6786179002 -1.09E-04
     8 OT DIIS     0.80E-01    6.1     0.00010277      -938.6786829136 -6.50E-05
     9 OT DIIS     0.80E-01    6.1     0.00007837      -938.6787122137 -2.93E-05
    10 OT DIIS     0.80E-01    6.1     0.00005276      -938.6787327951 -2.06E-05
    11 OT DIIS     0.80E-01    6.1     0.00004868      -938.6787476773 -1.49E-05
    12 OT DIIS     0.80E-01    6.1     0.00004012      -938.6787584032 -1.07E-05
    13 OT DIIS     0.80E-01    6.1     0.00003918      -938.6787640628 -5.66E-06
    14 OT DIIS     0.80E-01    6.1     0.00002893      -938.6787706785 -6.62E-06
    15 OT DIIS     0.80E-01    6.1     0.00002700      -938.6787759381 -5.26E-06
    16 OT DIIS     0.80E-01    6.1     0.00002441      -938.6787798179 -3.88E-06
    17 OT DIIS     0.80E-01    6.1     0.00002026      -938.6787845664 -4.75E-06
    18 OT DIIS     0.80E-01    6.1     0.00001770      -938.6787871372 -2.57E-06
    19 OT DIIS     0.80E-01    6.1     0.00001501      -938.6787899849 -2.85E-06
    20 OT DIIS     0.80E-01    6.1     0.00001424      -938.6787916321 -1.65E-06
    21 OT DIIS     0.80E-01    6.1     0.00001350      -938.6787930732 -1.44E-06
    22 OT DIIS     0.80E-01    6.1     0.00001220      -938.6787940973 -1.02E-06
    23 OT DIIS     0.80E-01    6.1     0.00001057      -938.6787952795 -1.18E-06
    24 OT DIIS     0.80E-01    6.1     0.00001012      -938.6787959774 -6.98E-07
    25 OT DIIS     0.80E-01    6.1     0.00000860      -938.6787968028 -8.25E-07

  *** SCF run converged in    25 steps ***


  Electronic density on regular grids:       -423.9999947711        0.0000052289
  Core density on regular grids:              423.9999999740       -0.0000000260
  Total charge density on r-space grids:        0.0000052029
  Total charge density g-space grids:           0.0000052029

  Overlap energy of the core charge distribution:               0.00000006296867
  Self energy of the core charge distribution:              -2435.54055198066590
  Core Hamiltonian energy:                                    709.21696936589467
  Hartree energy:                                            1010.75078783711581
  Exchange-correlation energy:                               -223.10600208814034

  Total energy:                                              -938.67879680282681

 ENERGY| Total FORCE_EVAL ( QS ) energy [hartree]           -938.678797304529326

 OPT| **************************************************************************
 OPT| Step number                                                             51
 OPT| Optimization method                                                  LBFGS
 OPT| Total energy [hartree]                                     -938.6787973045
 OPT| Effective energy change [hartree]                            -0.0002203945
 OPT| Decrease in energy                                                     YES
 OPT| Used time [s]                                                      159.822
 OPT|
 OPT| Maximum step size                                             0.0890050641
 OPT| Convergence limit for maximum step size                       0.0030000000
 OPT| Maximum step size is converged                                          NO
 OPT|
 OPT| RMS step size                                                 0.0122053008
 OPT| Convergence limit for RMS step size                           0.0015000000
 OPT| RMS step size is converged                                              NO
 OPT|
 OPT| Maximum gradient                                              0.0088034041
 OPT| Convergence limit for maximum gradient                        0.0010000000
 OPT| Maximum gradient is converged                                           NO
 OPT|
 OPT| RMS gradient                                                  0.0016895223
 OPT| Convergence limit for RMS gradient                            0.0003000000
 OPT| RMS gradient is converged                                               NO
 OPT| **************************************************************************
 OPT| Estimated peak process memory after this step [MiB]                   1796

 --------------------------
 OPTIMIZATION STEP:     52
 --------------------------

 Number of electrons:                                                        424
 Number of occupied orbitals:                                                212
 Number of molecular orbitals:                                               212

 Number of orbital functions:                                                326
 Number of independent orbital functions:                                    326

 Extrapolation method: ASPC


 SCF WAVEFUNCTION OPTIMIZATION

  ----------------------------------- OT ---------------------------------------
  Minimizer      : DIIS                : direct inversion
                                         in the iterative subspace
                                         using   7 DIIS vectors
                                         safer DIIS on
  Preconditioner : FULL_SINGLE_INVERSE : inversion of 
                                         H + eS - 2*(Sc)(c^T*H*c+const)(Sc)^T
  Precond_solver : DEFAULT
  stepsize       :    0.08000000                  energy_gap     :    0.08000000
  eps_taylor     :   0.10000E-15                  max_taylor     :             4
  ----------------------------------- OT ---------------------------------------

  Step     Update method      Time    Convergence         Total energy    Change
  ------------------------------------------------------------------------------
     1 OT DIIS     0.80E-01    4.9     0.00237565      -938.6507002068 -9.39E+02
     2 OT DIIS     0.80E-01    6.1     0.00161705      -938.6695385644 -1.88E-02
     3 OT DIIS     0.80E-01    6.1     0.00127845      -938.6744830957 -4.94E-03
     4 OT DIIS     0.80E-01    6.1     0.00101792      -938.6780840971 -3.60E-03
     5 OT DIIS     0.80E-01    6.1     0.00041412      -938.6792407972 -1.16E-03
     6 OT DIIS     0.80E-01    6.1     0.00023397      -938.6795662448 -3.25E-04
     7 OT DIIS     0.80E-01    6.1     0.00016209      -938.6796927378 -1.26E-04
     8 OT DIIS     0.80E-01    6.1     0.00011638      -938.6797476828 -5.49E-05
     9 OT DIIS     0.80E-01    6.1     0.00007267      -938.6797780920 -3.04E-05
    10 OT DIIS     0.80E-01    6.1     0.00005392      -938.6797976645 -1.96E-05
    11 OT DIIS     0.80E-01    6.1     0.00004483      -938.6798101371 -1.25E-05
    12 OT DIIS     0.80E-01    6.1     0.00003875      -938.6798204534 -1.03E-05
    13 OT DIIS     0.80E-01    6.1     0.00003691      -938.6798252226 -4.77E-06
    14 OT DIIS     0.80E-01    6.1     0.00002584      -938.6798302396 -5.02E-06
    15 OT DIIS     0.80E-01    6.1     0.00002162      -938.6798336371 -3.40E-06
    16 OT DIIS     0.80E-01    6.1     0.00001974      -938.6798361131 -2.48E-06
    17 OT DIIS     0.80E-01    6.1     0.00001576      -938.6798382617 -2.15E-06
    18 OT DIIS     0.80E-01    6.1     0.00001334      -938.6798395770 -1.32E-06
    19 OT DIIS     0.80E-01    6.1     0.00001108      -938.6798406429 -1.07E-06
    20 OT DIIS     0.80E-01    6.1     0.00000960      -938.6798413733 -7.30E-07

  *** SCF run converged in    20 steps ***


  Electronic density on regular grids:       -423.9999946336        0.0000053664
  Core density on regular grids:              423.9999999741       -0.0000000259
  Total charge density on r-space grids:        0.0000053405
  Total charge density g-space grids:           0.0000053405

  Overlap energy of the core charge distribution:               0.00000006200431
  Self energy of the core charge distribution:              -2435.54055198066590
  Core Hamiltonian energy:                                    709.25037018814658
  Hartree energy:                                            1010.72428344385457
  Exchange-correlation energy:                               -223.11394308668361

  Total energy:                                              -938.67984137334406

 ENERGY| Total FORCE_EVAL ( QS ) energy [hartree]           -938.679841847498210

 OPT| **************************************************************************
 OPT| Step number                                                             52
 OPT| Optimization method                                                  LBFGS
 OPT| Total energy [hartree]                                     -938.6798418475
 OPT| Effective energy change [hartree]                            -0.0010445430
 OPT| Decrease in energy                                                     YES
 OPT| Used time [s]                                                      129.472
 OPT|
 OPT| Maximum step size                                             0.0477184820
 OPT| Convergence limit for maximum step size                       0.0030000000
 OPT| Maximum step size is converged                                          NO
 OPT|
 OPT| RMS step size                                                 0.0093333628
 OPT| Convergence limit for RMS step size                           0.0015000000
 OPT| RMS step size is converged                                              NO
 OPT|
 OPT| Maximum gradient                                              0.0076594838
 OPT| Convergence limit for maximum gradient                        0.0010000000
 OPT| Maximum gradient is converged                                           NO
 OPT|
 OPT| RMS gradient                                                  0.0014970224
 OPT| Convergence limit for RMS gradient                            0.0003000000
 OPT| RMS gradient is converged                                               NO
 OPT| **************************************************************************
 OPT| Estimated peak process memory after this step [MiB]                   1796

 --------------------------
 OPTIMIZATION STEP:     53
 --------------------------

 Number of electrons:                                                        424
 Number of occupied orbitals:                                                212
 Number of molecular orbitals:                                               212

 Number of orbital functions:                                                326
 Number of independent orbital functions:                                    326

 Extrapolation method: ASPC


 SCF WAVEFUNCTION OPTIMIZATION

  ----------------------------------- OT ---------------------------------------
  Minimizer      : DIIS                : direct inversion
                                         in the iterative subspace
                                         using   7 DIIS vectors
                                         safer DIIS on
  Preconditioner : FULL_SINGLE_INVERSE : inversion of 
                                         H + eS - 2*(Sc)(c^T*H*c+const)(Sc)^T
  Precond_solver : DEFAULT
  stepsize       :    0.08000000                  energy_gap     :    0.08000000
  eps_taylor     :   0.10000E-15                  max_taylor     :             4
  ----------------------------------- OT ---------------------------------------

  Step     Update method      Time    Convergence         Total energy    Change
  ------------------------------------------------------------------------------
     1 OT DIIS     0.80E-01    4.8     0.00159321      -938.6663239580 -9.39E+02
     2 OT DIIS     0.80E-01    6.1     0.00097171      -938.6756645614 -9.34E-03
     3 OT DIIS     0.80E-01    6.1     0.00093375      -938.6779635514 -2.30E-03
     4 OT DIIS     0.80E-01    6.1     0.00064658      -938.6795977018 -1.63E-03
     5 OT DIIS     0.80E-01    6.1     0.00030227      -938.6800578781 -4.60E-04
     6 OT DIIS     0.80E-01    6.1     0.00015705      -938.6802383121 -1.80E-04
     7 OT DIIS     0.80E-01    6.1     0.00012331      -938.6802926363 -5.43E-05
     8 OT DIIS     0.80E-01    6.1     0.00007067      -938.6803235284 -3.09E-05
     9 OT DIIS     0.80E-01    6.1     0.00005486      -938.6803378403 -1.43E-05
    10 OT DIIS     0.80E-01    6.1     0.00003815      -938.6803471607 -9.32E-06
    11 OT DIIS     0.80E-01    6.1     0.00003301      -938.6803542114 -7.05E-06
    12 OT DIIS     0.80E-01    6.1     0.00002829      -938.6803591402 -4.93E-06
    13 OT DIIS     0.80E-01    6.1     0.00002686      -938.6803620874 -2.95E-06
    14 OT DIIS     0.80E-01    6.1     0.00002033      -938.6803648480 -2.76E-06
    15 OT DIIS     0.80E-01    6.1     0.00001807      -938.6803672931 -2.45E-06
    16 OT DIIS     0.80E-01    6.1     0.00001610      -938.6803692231 -1.93E-06
    17 OT DIIS     0.80E-01    6.1     0.00001363      -938.6803712358 -2.01E-06
    18 OT DIIS     0.80E-01    6.1     0.00001205      -938.6803722641 -1.03E-06
    19 OT DIIS     0.80E-01    6.1     0.00000991      -938.6803734096 -1.15E-06

  *** SCF run converged in    19 steps ***


  Electronic density on regular grids:       -423.9999945889        0.0000054111
  Core density on regular grids:              423.9999999741       -0.0000000259
  Total charge density on r-space grids:        0.0000053851
  Total charge density g-space grids:           0.0000053851

  Overlap energy of the core charge distribution:               0.00000006247625
  Self energy of the core charge distribution:              -2435.54055198066590
  Core Hamiltonian energy:                                    709.25277906350664
  Hartree energy:                                            1010.72271388678280
  Exchange-correlation energy:                               -223.11531444174418

  Total energy:                                              -938.68037340964418

 ENERGY| Total FORCE_EVAL ( QS ) energy [hartree]           -938.680374141104039

 OPT| **************************************************************************
 OPT| Step number                                                             53
 OPT| Optimization method                                                  LBFGS
 OPT| Total energy [hartree]                                     -938.6803741411
 OPT| Effective energy change [hartree]                            -0.0005322936
 OPT| Decrease in energy                                                     YES
 OPT| Used time [s]                                                      123.307
 OPT|
 OPT| Maximum step size                                             0.0182697682
 OPT| Convergence limit for maximum step size                       0.0030000000
 OPT| Maximum step size is converged                                          NO
 OPT|
 OPT| RMS step size                                                 0.0031523744
 OPT| Convergence limit for RMS step size                           0.0015000000
 OPT| RMS step size is converged                                              NO
 OPT|
 OPT| Maximum gradient                                              0.0030377601
 OPT| Convergence limit for maximum gradient                        0.0010000000
 OPT| Maximum gradient is converged                                           NO
 OPT|
 OPT| RMS gradient                                                  0.0007570478
 OPT| Convergence limit for RMS gradient                            0.0003000000
 OPT| RMS gradient is converged                                               NO
 OPT| **************************************************************************
 OPT| Estimated peak process memory after this step [MiB]                   1796

 --------------------------
 OPTIMIZATION STEP:     54
 --------------------------

 Number of electrons:                                                        424
 Number of occupied orbitals:                                                212
 Number of molecular orbitals:                                               212

 Number of orbital functions:                                                326
 Number of independent orbital functions:                                    326

 Extrapolation method: ASPC


 SCF WAVEFUNCTION OPTIMIZATION

  ----------------------------------- OT ---------------------------------------
  Minimizer      : DIIS                : direct inversion
                                         in the iterative subspace
                                         using   7 DIIS vectors
                                         safer DIIS on
  Preconditioner : FULL_SINGLE_INVERSE : inversion of 
                                         H + eS - 2*(Sc)(c^T*H*c+const)(Sc)^T
  Precond_solver : DEFAULT
  stepsize       :    0.08000000                  energy_gap     :    0.08000000
  eps_taylor     :   0.10000E-15                  max_taylor     :             4
  ----------------------------------- OT ---------------------------------------

  Step     Update method      Time    Convergence         Total energy    Change
  ------------------------------------------------------------------------------
     1 OT DIIS     0.80E-01    4.8     0.00069558      -938.6781036238 -9.39E+02
     2 OT DIIS     0.80E-01    6.1     0.00048200      -938.6797078879 -1.60E-03
     3 OT DIIS     0.80E-01    6.1     0.00041854      -938.6801042364 -3.96E-04
     4 OT DIIS     0.80E-01    6.1     0.00032678      -938.6804189435 -3.15E-04
     5 OT DIIS     0.80E-01    6.1     0.00014329      -938.6805416377 -1.23E-04
     6 OT DIIS     0.80E-01    6.1     0.00007036      -938.6805792971 -3.77E-05
     7 OT DIIS     0.80E-01    6.1     0.00005478      -938.6805907108 -1.14E-05
     8 OT DIIS     0.80E-01    6.1     0.00003039      -938.6805967124 -6.00E-06
     9 OT DIIS     0.80E-01    6.1     0.00002442      -938.6805995792 -2.87E-06
    10 OT DIIS     0.80E-01    6.1     0.00001767      -938.6806011909 -1.61E-06
    11 OT DIIS     0.80E-01    6.1     0.00001378      -938.6806024162 -1.23E-06
    12 OT DIIS     0.80E-01    6.1     0.00001235      -938.6806032864 -8.70E-07
    13 OT DIIS     0.80E-01    6.1     0.00001109      -938.6806037146 -4.28E-07
    14 OT DIIS     0.80E-01    6.1     0.00000789      -938.6806041376 -4.23E-07

  *** SCF run converged in    14 steps ***


  Electronic density on regular grids:       -423.9999945423        0.0000054577
  Core density on regular grids:              423.9999999741       -0.0000000259
  Total charge density on r-space grids:        0.0000054318
  Total charge density g-space grids:           0.0000054318

  Overlap energy of the core charge distribution:               0.00000006264864
  Self energy of the core charge distribution:              -2435.54055198066590
  Core Hamiltonian energy:                                    709.24950587158503
  Hartree energy:                                            1010.72521100428230
  Exchange-correlation energy:                               -223.11476909541531

  Total energy:                                              -938.68060413756530

 ENERGY| Total FORCE_EVAL ( QS ) energy [hartree]           -938.680604473152471

 OPT| **************************************************************************
 OPT| Step number                                                             54
 OPT| Optimization method                                                  LBFGS
 OPT| Total energy [hartree]                                     -938.6806044732
 OPT| Effective energy change [hartree]                            -0.0002303320
 OPT| Decrease in energy                                                     YES
 OPT| Used time [s]                                                       92.849
 OPT|
 OPT| Maximum step size                                             0.0074122088
 OPT| Convergence limit for maximum step size                       0.0030000000
 OPT| Maximum step size is converged                                          NO
 OPT|
 OPT| RMS step size                                                 0.0017084124
 OPT| Convergence limit for RMS step size                           0.0015000000
 OPT| RMS step size is converged                                              NO
 OPT|
 OPT| Maximum gradient                                              0.0026697784
 OPT| Convergence limit for maximum gradient                        0.0010000000
 OPT| Maximum gradient is converged                                           NO
 OPT|
 OPT| RMS gradient                                                  0.0005718073
 OPT| Convergence limit for RMS gradient                            0.0003000000
 OPT| RMS gradient is converged                                               NO
 OPT| **************************************************************************
 OPT| Estimated peak process memory after this step [MiB]                   1796

 --------------------------
 OPTIMIZATION STEP:     55
 --------------------------

 Number of electrons:                                                        424
 Number of occupied orbitals:                                                212
 Number of molecular orbitals:                                               212

 Number of orbital functions:                                                326
 Number of independent orbital functions:                                    326

 Extrapolation method: ASPC


 SCF WAVEFUNCTION OPTIMIZATION

  ----------------------------------- OT ---------------------------------------
  Minimizer      : DIIS                : direct inversion
                                         in the iterative subspace
                                         using   7 DIIS vectors
                                         safer DIIS on
  Preconditioner : FULL_SINGLE_INVERSE : inversion of 
                                         H + eS - 2*(Sc)(c^T*H*c+const)(Sc)^T
  Precond_solver : DEFAULT
  stepsize       :    0.08000000                  energy_gap     :    0.08000000
  eps_taylor     :   0.10000E-15                  max_taylor     :             4
  ----------------------------------- OT ---------------------------------------

  Step     Update method      Time    Convergence         Total energy    Change
  ------------------------------------------------------------------------------
     1 OT DIIS     0.80E-01    4.9     0.00024827      -938.6805451721 -9.39E+02
     2 OT DIIS     0.80E-01    6.1     0.00016339      -938.6807523389 -2.07E-04
     3 OT DIIS     0.80E-01    6.1     0.00016521      -938.6807985125 -4.62E-05
     4 OT DIIS     0.80E-01    6.1     0.00010799      -938.6808393804 -4.09E-05
     5 OT DIIS     0.80E-01    6.1     0.00005465      -938.6808587935 -1.94E-05
     6 OT DIIS     0.80E-01    6.1     0.00003771      -938.6808644918 -5.70E-06
     7 OT DIIS     0.80E-01    6.1     0.00002323      -938.6808674045 -2.91E-06
     8 OT DIIS     0.80E-01    6.1     0.00001717      -938.6808693553 -1.95E-06
     9 OT DIIS     0.80E-01    6.1     0.00001571      -938.6808706417 -1.29E-06
    10 OT DIIS     0.80E-01    6.1     0.00001293      -938.6808717458 -1.10E-06
    11 OT DIIS     0.80E-01    6.1     0.00001189      -938.6808729069 -1.16E-06
    12 OT DIIS     0.80E-01    6.1     0.00001129      -938.6808739652 -1.06E-06
    13 OT DIIS     0.80E-01    6.1     0.00001045      -938.6808748126 -8.47E-07
    14 OT DIIS     0.80E-01    6.1     0.00000936      -938.6808757780 -9.65E-07

  *** SCF run converged in    14 steps ***


  Electronic density on regular grids:       -423.9999944390        0.0000055610
  Core density on regular grids:              423.9999999741       -0.0000000259
  Total charge density on r-space grids:        0.0000055351
  Total charge density g-space grids:           0.0000055351

  Overlap energy of the core charge distribution:               0.00000006220656
  Self energy of the core charge distribution:              -2435.54055198066590
  Core Hamiltonian energy:                                    709.25227311132483
  Hartree energy:                                            1010.72228523605327
  Exchange-correlation energy:                               -223.11488220687590

  Total energy:                                              -938.68087577795689

 ENERGY| Total FORCE_EVAL ( QS ) energy [hartree]           -938.680876555459463

 OPT| **************************************************************************
 OPT| Step number                                                             55
 OPT| Optimization method                                                  LBFGS
 OPT| Total energy [hartree]                                     -938.6808765555
 OPT| Effective energy change [hartree]                            -0.0002720823
 OPT| Decrease in energy                                                     YES
 OPT| Used time [s]                                                       92.921
 OPT|
 OPT| Maximum step size                                             0.0238306365
 OPT| Convergence limit for maximum step size                       0.0030000000
 OPT| Maximum step size is converged                                          NO
 OPT|
 OPT| RMS step size                                                 0.0043322274
 OPT| Convergence limit for RMS step size                           0.0015000000
 OPT| RMS step size is converged                                              NO
 OPT|
 OPT| Maximum gradient                                              0.0027877504
 OPT| Convergence limit for maximum gradient                        0.0010000000
 OPT| Maximum gradient is converged                                           NO
 OPT|
 OPT| RMS gradient                                                  0.0005477429
 OPT| Convergence limit for RMS gradient                            0.0003000000
 OPT| RMS gradient is converged                                               NO
 OPT| **************************************************************************
 OPT| Estimated peak process memory after this step [MiB]                   1796

 --------------------------
 OPTIMIZATION STEP:     56
 --------------------------

 Number of electrons:                                                        424
 Number of occupied orbitals:                                                212
 Number of molecular orbitals:                                               212

 Number of orbital functions:                                                326
 Number of independent orbital functions:                                    326

 Extrapolation method: ASPC


 SCF WAVEFUNCTION OPTIMIZATION

  ----------------------------------- OT ---------------------------------------
  Minimizer      : DIIS                : direct inversion
                                         in the iterative subspace
                                         using   7 DIIS vectors
                                         safer DIIS on
  Preconditioner : FULL_SINGLE_INVERSE : inversion of 
                                         H + eS - 2*(Sc)(c^T*H*c+const)(Sc)^T
  Precond_solver : DEFAULT
  stepsize       :    0.08000000                  energy_gap     :    0.08000000
  eps_taylor     :   0.10000E-15                  max_taylor     :             4
  ----------------------------------- OT ---------------------------------------

  Step     Update method      Time    Convergence         Total energy    Change
  ------------------------------------------------------------------------------
     1 OT DIIS     0.80E-01    4.9     0.00024367      -938.6806382231 -9.39E+02
     2 OT DIIS     0.80E-01    6.1     0.00017396      -938.6808377185 -1.99E-04
     3 OT DIIS     0.80E-01    6.1     0.00017983      -938.6808804241 -4.27E-05
     4 OT DIIS     0.80E-01    6.1     0.00011037      -938.6809269863 -4.66E-05
     5 OT DIIS     0.80E-01    6.1     0.00005340      -938.6809462651 -1.93E-05
     6 OT DIIS     0.80E-01    6.1     0.00003815      -938.6809516473 -5.38E-06
     7 OT DIIS     0.80E-01    6.1     0.00002057      -938.6809542206 -2.57E-06
     8 OT DIIS     0.80E-01    6.1     0.00001383      -938.6809557430 -1.52E-06
     9 OT DIIS     0.80E-01    6.1     0.00001349      -938.6809564687 -7.26E-07
    10 OT DIIS     0.80E-01    6.1     0.00000968      -938.6809570641 -5.95E-07

  *** SCF run converged in    10 steps ***


  Electronic density on regular grids:       -423.9999943966        0.0000056034
  Core density on regular grids:              423.9999999741       -0.0000000259
  Total charge density on r-space grids:        0.0000055774
  Total charge density g-space grids:           0.0000055774

  Overlap energy of the core charge distribution:               0.00000006400319
  Self energy of the core charge distribution:              -2435.54055198066590
  Core Hamiltonian energy:                                    709.26634599088300
  Hartree energy:                                            1010.71200213242798
  Exchange-correlation energy:                               -223.11875327079241

  Total energy:                                              -938.68095706414374

 ENERGY| Total FORCE_EVAL ( QS ) energy [hartree]           -938.680957607167102

 OPT| **************************************************************************
 OPT| Step number                                                             56
 OPT| Optimization method                                                  LBFGS
 OPT| Total energy [hartree]                                     -938.6809576072
 OPT| Effective energy change [hartree]                            -0.0000810517
 OPT| Decrease in energy                                                     YES
 OPT| Used time [s]                                                       68.534
 OPT|
 OPT| Maximum step size                                             0.0151430355
 OPT| Convergence limit for maximum step size                       0.0030000000
 OPT| Maximum step size is converged                                          NO
 OPT|
 OPT| RMS step size                                                 0.0036423313
 OPT| Convergence limit for RMS step size                           0.0015000000
 OPT| RMS step size is converged                                              NO
 OPT|
 OPT| Maximum gradient                                              0.0079883981
 OPT| Convergence limit for maximum gradient                        0.0010000000
 OPT| Maximum gradient is converged                                           NO
 OPT|
 OPT| RMS gradient                                                  0.0010056924
 OPT| Convergence limit for RMS gradient                            0.0003000000
 OPT| RMS gradient is converged                                               NO
 OPT| **************************************************************************
 OPT| Estimated peak process memory after this step [MiB]                   1796

 --------------------------
 OPTIMIZATION STEP:     57
 --------------------------

 Number of electrons:                                                        424
 Number of occupied orbitals:                                                212
 Number of molecular orbitals:                                               212

 Number of orbital functions:                                                326
 Number of independent orbital functions:                                    326

 Extrapolation method: ASPC


 SCF WAVEFUNCTION OPTIMIZATION

  ----------------------------------- OT ---------------------------------------
  Minimizer      : DIIS                : direct inversion
                                         in the iterative subspace
                                         using   7 DIIS vectors
                                         safer DIIS on
  Preconditioner : FULL_SINGLE_INVERSE : inversion of 
                                         H + eS - 2*(Sc)(c^T*H*c+const)(Sc)^T
  Precond_solver : DEFAULT
  stepsize       :    0.08000000                  energy_gap     :    0.08000000
  eps_taylor     :   0.10000E-15                  max_taylor     :             4
  ----------------------------------- OT ---------------------------------------

  Step     Update method      Time    Convergence         Total energy    Change
  ------------------------------------------------------------------------------
     1 OT DIIS     0.80E-01    4.8     0.00028186      -938.6806822635 -9.39E+02
     2 OT DIIS     0.80E-01    6.1     0.00019061      -938.6809598426 -2.78E-04
     3 OT DIIS     0.80E-01    6.1     0.00021586      -938.6810162489 -5.64E-05
     4 OT DIIS     0.80E-01    6.1     0.00013087      -938.6810774484 -6.12E-05
     5 OT DIIS     0.80E-01    6.1     0.00005599      -938.6811033197 -2.59E-05
     6 OT DIIS     0.80E-01    6.1     0.00003584      -938.6811099122 -6.59E-06
     7 OT DIIS     0.80E-01    6.1     0.00002452      -938.6811125053 -2.59E-06
     8 OT DIIS     0.80E-01    6.1     0.00001451      -938.6811140498 -1.54E-06
     9 OT DIIS     0.80E-01    6.1     0.00001338      -938.6811146714 -6.22E-07
    10 OT DIIS     0.80E-01    6.1     0.00000885      -938.6811152055 -5.34E-07

  *** SCF run converged in    10 steps ***


  Electronic density on regular grids:       -423.9999943545        0.0000056455
  Core density on regular grids:              423.9999999741       -0.0000000259
  Total charge density on r-space grids:        0.0000056196
  Total charge density g-space grids:           0.0000056196

  Overlap energy of the core charge distribution:               0.00000006255435
  Self energy of the core charge distribution:              -2435.54055198066590
  Core Hamiltonian energy:                                    709.26386095930059
  Hartree energy:                                            1010.71291981838874
  Exchange-correlation energy:                               -223.11734406509692

  Total energy:                                              -938.68111520551952

 ENERGY| Total FORCE_EVAL ( QS ) energy [hartree]           -938.681115622652896

 OPT| **************************************************************************
 OPT| Step number                                                             57
 OPT| Optimization method                                                  LBFGS
 OPT| Total energy [hartree]                                     -938.6811156227
 OPT| Effective energy change [hartree]                            -0.0001580155
 OPT| Decrease in energy                                                     YES
 OPT| Used time [s]                                                       68.522
 OPT|
 OPT| Maximum step size                                             0.0053135507
 OPT| Convergence limit for maximum step size                       0.0030000000
 OPT| Maximum step size is converged                                          NO
 OPT|
 OPT| RMS step size                                                 0.0009267375
 OPT| Convergence limit for RMS step size                           0.0015000000
 OPT| RMS step size is converged                                             YES
 OPT|
 OPT| Maximum gradient                                              0.0023351223
 OPT| Convergence limit for maximum gradient                        0.0010000000
 OPT| Maximum gradient is converged                                           NO
 OPT|
 OPT| RMS gradient                                                  0.0004544627
 OPT| Convergence limit for RMS gradient                            0.0003000000
 OPT| RMS gradient is converged                                               NO
 OPT| **************************************************************************
 OPT| Estimated peak process memory after this step [MiB]                   1796

 --------------------------
 OPTIMIZATION STEP:     58
 --------------------------

 Number of electrons:                                                        424
 Number of occupied orbitals:                                                212
 Number of molecular orbitals:                                               212

 Number of orbital functions:                                                326
 Number of independent orbital functions:                                    326

 Extrapolation method: ASPC


 SCF WAVEFUNCTION OPTIMIZATION

  ----------------------------------- OT ---------------------------------------
  Minimizer      : DIIS                : direct inversion
                                         in the iterative subspace
                                         using   7 DIIS vectors
                                         safer DIIS on
  Preconditioner : FULL_SINGLE_INVERSE : inversion of 
                                         H + eS - 2*(Sc)(c^T*H*c+const)(Sc)^T
  Precond_solver : DEFAULT
  stepsize       :    0.08000000                  energy_gap     :    0.08000000
  eps_taylor     :   0.10000E-15                  max_taylor     :             4
  ----------------------------------- OT ---------------------------------------

  Step     Update method      Time    Convergence         Total energy    Change
  ------------------------------------------------------------------------------
     1 OT DIIS     0.80E-01    4.9     0.00024792      -938.6808836215 -9.39E+02
     2 OT DIIS     0.80E-01    6.1     0.00016542      -938.6810980759 -2.14E-04
     3 OT DIIS     0.80E-01    6.1     0.00013874      -938.6811558657 -5.78E-05
     4 OT DIIS     0.80E-01    6.1     0.00008629      -938.6812049004 -4.90E-05
     5 OT DIIS     0.80E-01    6.1     0.00005630      -938.6812161047 -1.12E-05
     6 OT DIIS     0.80E-01    6.1     0.00002776      -938.6812213287 -5.22E-06
     7 OT DIIS     0.80E-01    6.1     0.00002133      -938.6812228834 -1.55E-06
     8 OT DIIS     0.80E-01    6.1     0.00001198      -938.6812238312 -9.48E-07
     9 OT DIIS     0.80E-01    6.1     0.00001022      -938.6812242220 -3.91E-07
    10 OT DIIS     0.80E-01    6.1     0.00000707      -938.6812245245 -3.02E-07

  *** SCF run converged in    10 steps ***


  Electronic density on regular grids:       -423.9999942816        0.0000057184
  Core density on regular grids:              423.9999999741       -0.0000000259
  Total charge density on r-space grids:        0.0000056924
  Total charge density g-space grids:           0.0000056924

  Overlap energy of the core charge distribution:               0.00000006188057
  Self energy of the core charge distribution:              -2435.54055198066590
  Core Hamiltonian energy:                                    709.26433457278256
  Hartree energy:                                            1010.71184396517538
  Exchange-correlation energy:                               -223.11685114363402

  Total energy:                                              -938.68122452446141

 ENERGY| Total FORCE_EVAL ( QS ) energy [hartree]           -938.681224751380796

 OPT| **************************************************************************
 OPT| Step number                                                             58
 OPT| Optimization method                                                  LBFGS
 OPT| Total energy [hartree]                                     -938.6812247514
 OPT| Effective energy change [hartree]                            -0.0001091287
 OPT| Decrease in energy                                                     YES
 OPT| Used time [s]                                                       68.534
 OPT|
 OPT| Maximum step size                                             0.0088914803
 OPT| Convergence limit for maximum step size                       0.0030000000
 OPT| Maximum step size is converged                                          NO
 OPT|
 OPT| RMS step size                                                 0.0016952958
 OPT| Convergence limit for RMS step size                           0.0015000000
 OPT| RMS step size is converged                                              NO
 OPT|
 OPT| Maximum gradient                                              0.0018061411
 OPT| Convergence limit for maximum gradient                        0.0010000000
 OPT| Maximum gradient is converged                                           NO
 OPT|
 OPT| RMS gradient                                                  0.0003957050
 OPT| Convergence limit for RMS gradient                            0.0003000000
 OPT| RMS gradient is converged                                               NO
 OPT| **************************************************************************
 OPT| Estimated peak process memory after this step [MiB]                   1796

 --------------------------
 OPTIMIZATION STEP:     59
 --------------------------

 Number of electrons:                                                        424
 Number of occupied orbitals:                                                212
 Number of molecular orbitals:                                               212

 Number of orbital functions:                                                326
 Number of independent orbital functions:                                    326

 Extrapolation method: ASPC


 SCF WAVEFUNCTION OPTIMIZATION

  ----------------------------------- OT ---------------------------------------
  Minimizer      : DIIS                : direct inversion
                                         in the iterative subspace
                                         using   7 DIIS vectors
                                         safer DIIS on
  Preconditioner : FULL_SINGLE_INVERSE : inversion of 
                                         H + eS - 2*(Sc)(c^T*H*c+const)(Sc)^T
  Precond_solver : DEFAULT
  stepsize       :    0.08000000                  energy_gap     :    0.08000000
  eps_taylor     :   0.10000E-15                  max_taylor     :             4
  ----------------------------------- OT ---------------------------------------

  Step     Update method      Time    Convergence         Total energy    Change
  ------------------------------------------------------------------------------
     1 OT DIIS     0.80E-01    4.8     0.00010815      -938.6812566929 -9.39E+02
     2 OT DIIS     0.80E-01    6.1     0.00008025      -938.6812965892 -3.99E-05
     3 OT DIIS     0.80E-01    6.1     0.00007835      -938.6813064544 -9.87E-06
     4 OT DIIS     0.80E-01    6.1     0.00005365      -938.6813168299 -1.04E-05
     5 OT DIIS     0.80E-01    6.1     0.00002526      -938.6813215541 -4.72E-06
     6 OT DIIS     0.80E-01    6.1     0.00001790      -938.6813231910 -1.64E-06
     7 OT DIIS     0.80E-01    6.1     0.00001310      -938.6813239778 -7.87E-07
     8 OT DIIS     0.80E-01    6.1     0.00001008      -938.6813247683 -7.91E-07
     9 OT DIIS     0.80E-01    6.1     0.00000945      -938.6813252808 -5.12E-07

  *** SCF run converged in     9 steps ***


  Electronic density on regular grids:       -423.9999941931        0.0000058069
  Core density on regular grids:              423.9999999741       -0.0000000259
  Total charge density on r-space grids:        0.0000057809
  Total charge density g-space grids:           0.0000057809

  Overlap energy of the core charge distribution:               0.00000006156372
  Self energy of the core charge distribution:              -2435.54055198066590
  Core Hamiltonian energy:                                    709.26355164131269
  Hartree energy:                                            1010.71181117343372
  Exchange-correlation energy:                               -223.11613617645637

  Total energy:                                              -938.68132528081219

 ENERGY| Total FORCE_EVAL ( QS ) energy [hartree]           -938.681325875908783

 OPT| **************************************************************************
 OPT| Step number                                                             59
 OPT| Optimization method                                                  LBFGS
 OPT| Total energy [hartree]                                     -938.6813258759
 OPT| Effective energy change [hartree]                            -0.0001011245
 OPT| Decrease in energy                                                     YES
 OPT| Used time [s]                                                       62.462
 OPT|
 OPT| Maximum step size                                             0.0137398487
 OPT| Convergence limit for maximum step size                       0.0030000000
 OPT| Maximum step size is converged                                          NO
 OPT|
 OPT| RMS step size                                                 0.0024392740
 OPT| Convergence limit for RMS step size                           0.0015000000
 OPT| RMS step size is converged                                              NO
 OPT|
 OPT| Maximum gradient                                              0.0031948421
 OPT| Convergence limit for maximum gradient                        0.0010000000
 OPT| Maximum gradient is converged                                           NO
 OPT|
 OPT| RMS gradient                                                  0.0005302715
 OPT| Convergence limit for RMS gradient                            0.0003000000
 OPT| RMS gradient is converged                                               NO
 OPT| **************************************************************************
 OPT| Estimated peak process memory after this step [MiB]                   1796

 --------------------------
 OPTIMIZATION STEP:     60
 --------------------------

 Number of electrons:                                                        424
 Number of occupied orbitals:                                                212
 Number of molecular orbitals:                                               212

 Number of orbital functions:                                                326
 Number of independent orbital functions:                                    326

 Extrapolation method: ASPC


 SCF WAVEFUNCTION OPTIMIZATION

  ----------------------------------- OT ---------------------------------------
  Minimizer      : DIIS                : direct inversion
                                         in the iterative subspace
                                         using   7 DIIS vectors
                                         safer DIIS on
  Preconditioner : FULL_SINGLE_INVERSE : inversion of 
                                         H + eS - 2*(Sc)(c^T*H*c+const)(Sc)^T
  Precond_solver : DEFAULT
  stepsize       :    0.08000000                  energy_gap     :    0.08000000
  eps_taylor     :   0.10000E-15                  max_taylor     :             4
  ----------------------------------- OT ---------------------------------------

  Step     Update method      Time    Convergence         Total energy    Change
  ------------------------------------------------------------------------------
     1 OT DIIS     0.80E-01    4.8     0.00006588      -938.6814452671 -9.39E+02
     2 OT DIIS     0.80E-01    6.1     0.00005829      -938.6814585962 -1.33E-05
     3 OT DIIS     0.80E-01    6.1     0.00004519      -938.6814629888 -4.39E-06
     4 OT DIIS     0.80E-01    6.1     0.00003656      -938.6814670337 -4.04E-06
     5 OT DIIS     0.80E-01    6.1     0.00001629      -938.6814693508 -2.32E-06
     6 OT DIIS     0.80E-01    6.1     0.00001140      -938.6814699238 -5.73E-07
     7 OT DIIS     0.80E-01    6.1     0.00000700      -938.6814702118 -2.88E-07

  *** SCF run converged in     7 steps ***


  Electronic density on regular grids:       -423.9999940884        0.0000059116
  Core density on regular grids:              423.9999999740       -0.0000000260
  Total charge density on r-space grids:        0.0000058856
  Total charge density g-space grids:           0.0000058856

  Overlap energy of the core charge distribution:               0.00000006153406
  Self energy of the core charge distribution:              -2435.54055198066590
  Core Hamiltonian energy:                                    709.25996520267984
  Hartree energy:                                            1010.71402922616699
  Exchange-correlation energy:                               -223.11491272146512

  Total energy:                                              -938.68147021175014

 ENERGY| Total FORCE_EVAL ( QS ) energy [hartree]           -938.681470441115380

 OPT| **************************************************************************
 OPT| Step number                                                             60
 OPT| Optimization method                                                  LBFGS
 OPT| Total energy [hartree]                                     -938.6814704411
 OPT| Effective energy change [hartree]                            -0.0001445652
 OPT| Decrease in energy                                                     YES
 OPT| Used time [s]                                                       50.295
 OPT|
 OPT| Maximum step size                                             0.0268145690
 OPT| Convergence limit for maximum step size                       0.0030000000
 OPT| Maximum step size is converged                                          NO
 OPT|
 OPT| RMS step size                                                 0.0041307961
 OPT| Convergence limit for RMS step size                           0.0015000000
 OPT| RMS step size is converged                                              NO
 OPT|
 OPT| Maximum gradient                                              0.0037362281
 OPT| Convergence limit for maximum gradient                        0.0010000000
 OPT| Maximum gradient is converged                                           NO
 OPT|
 OPT| RMS gradient                                                  0.0006447415
 OPT| Convergence limit for RMS gradient                            0.0003000000
 OPT| RMS gradient is converged                                               NO
 OPT| **************************************************************************
 OPT| Estimated peak process memory after this step [MiB]                   1796

 --------------------------
 OPTIMIZATION STEP:     61
 --------------------------

 Number of electrons:                                                        424
 Number of occupied orbitals:                                                212
 Number of molecular orbitals:                                               212

 Number of orbital functions:                                                326
 Number of independent orbital functions:                                    326

 Extrapolation method: ASPC


 SCF WAVEFUNCTION OPTIMIZATION

  ----------------------------------- OT ---------------------------------------
  Minimizer      : DIIS                : direct inversion
                                         in the iterative subspace
                                         using   7 DIIS vectors
                                         safer DIIS on
  Preconditioner : FULL_SINGLE_INVERSE : inversion of 
                                         H + eS - 2*(Sc)(c^T*H*c+const)(Sc)^T
  Precond_solver : DEFAULT
  stepsize       :    0.08000000                  energy_gap     :    0.08000000
  eps_taylor     :   0.10000E-15                  max_taylor     :             4
  ----------------------------------- OT ---------------------------------------

  Step     Update method      Time    Convergence         Total energy    Change
  ------------------------------------------------------------------------------
     1 OT DIIS     0.80E-01    4.9     0.00013441      -938.6814584102 -9.39E+02
     2 OT DIIS     0.80E-01    6.1     0.00012045      -938.6814984477 -4.00E-05
     3 OT DIIS     0.80E-01    6.1     0.00006995      -938.6815155778 -1.71E-05
     4 OT DIIS     0.80E-01    6.1     0.00006206      -938.6815225438 -6.97E-06
     5 OT DIIS     0.80E-01    6.1     0.00002274      -938.6815277662 -5.22E-06
     6 OT DIIS     0.80E-01    6.1     0.00001545      -938.6815289445 -1.18E-06
     7 OT DIIS     0.80E-01    6.1     0.00001019      -938.6815293489 -4.04E-07
     8 OT DIIS     0.80E-01    6.1     0.00000687      -938.6815295892 -2.40E-07

  *** SCF run converged in     8 steps ***


  Electronic density on regular grids:       -423.9999940471        0.0000059529
  Core density on regular grids:              423.9999999740       -0.0000000260
  Total charge density on r-space grids:        0.0000059268
  Total charge density g-space grids:           0.0000059268

  Overlap energy of the core charge distribution:               0.00000006171782
  Self energy of the core charge distribution:              -2435.54055198066590
  Core Hamiltonian energy:                                    709.26114225643346
  Hartree energy:                                            1010.71265571267122
  Exchange-correlation energy:                               -223.11477563940431

  Total energy:                                              -938.68152958924770

 ENERGY| Total FORCE_EVAL ( QS ) energy [hartree]           -938.681529692127469

 OPT| **************************************************************************
 OPT| Step number                                                             61
 OPT| Optimization method                                                  LBFGS
 OPT| Total energy [hartree]                                     -938.6815296921
 OPT| Effective energy change [hartree]                            -0.0000592510
 OPT| Decrease in energy                                                     YES
 OPT| Used time [s]                                                       56.389
 OPT|
 OPT| Maximum step size                                             0.0383075817
 OPT| Convergence limit for maximum step size                       0.0030000000
 OPT| Maximum step size is converged                                          NO
 OPT|
 OPT| RMS step size                                                 0.0052067929
 OPT| Convergence limit for RMS step size                           0.0015000000
 OPT| RMS step size is converged                                              NO
 OPT|
 OPT| Maximum gradient                                              0.0072316417
 OPT| Convergence limit for maximum gradient                        0.0010000000
 OPT| Maximum gradient is converged                                           NO
 OPT|
 OPT| RMS gradient                                                  0.0010471106
 OPT| Convergence limit for RMS gradient                            0.0003000000
 OPT| RMS gradient is converged                                               NO
 OPT| **************************************************************************
 OPT| Estimated peak process memory after this step [MiB]                   1796

 --------------------------
 OPTIMIZATION STEP:     62
 --------------------------

 Number of electrons:                                                        424
 Number of occupied orbitals:                                                212
 Number of molecular orbitals:                                               212

 Number of orbital functions:                                                326
 Number of independent orbital functions:                                    326

 Extrapolation method: ASPC


 SCF WAVEFUNCTION OPTIMIZATION

  ----------------------------------- OT ---------------------------------------
  Minimizer      : DIIS                : direct inversion
                                         in the iterative subspace
                                         using   7 DIIS vectors
                                         safer DIIS on
  Preconditioner : FULL_SINGLE_INVERSE : inversion of 
                                         H + eS - 2*(Sc)(c^T*H*c+const)(Sc)^T
  Precond_solver : DEFAULT
  stepsize       :    0.08000000                  energy_gap     :    0.08000000
  eps_taylor     :   0.10000E-15                  max_taylor     :             4
  ----------------------------------- OT ---------------------------------------

  Step     Update method      Time    Convergence         Total energy    Change
  ------------------------------------------------------------------------------
     1 OT DIIS     0.80E-01    4.8     0.00025784      -938.6813170577 -9.39E+02
     2 OT DIIS     0.80E-01    6.1     0.00018037      -938.6815485568 -2.31E-04
     3 OT DIIS     0.80E-01    6.1     0.00017875      -938.6816052230 -5.67E-05
     4 OT DIIS     0.80E-01    6.1     0.00012382      -938.6816590751 -5.39E-05
     5 OT DIIS     0.80E-01    6.1     0.00005247      -938.6816822716 -2.32E-05
     6 OT DIIS     0.80E-01    6.1     0.00003250      -938.6816885163 -6.24E-06
     7 OT DIIS     0.80E-01    6.1     0.00002456      -938.6816902836 -1.77E-06
     8 OT DIIS     0.80E-01    6.1     0.00001290      -938.6816914676 -1.18E-06
     9 OT DIIS     0.80E-01    6.1     0.00001077      -938.6816919606 -4.93E-07
    10 OT DIIS     0.80E-01    6.1     0.00000783      -938.6816923283 -3.68E-07

  *** SCF run converged in    10 steps ***


  Electronic density on regular grids:       -423.9999940483        0.0000059517
  Core density on regular grids:              423.9999999740       -0.0000000260
  Total charge density on r-space grids:        0.0000059257
  Total charge density g-space grids:           0.0000059257

  Overlap energy of the core charge distribution:               0.00000006219337
  Self energy of the core charge distribution:              -2435.54055198066590
  Core Hamiltonian energy:                                    709.26299726481568
  Hartree energy:                                            1010.71185451585052
  Exchange-correlation energy:                               -223.11599219045107

  Total energy:                                              -938.68169232825733

 ENERGY| Total FORCE_EVAL ( QS ) energy [hartree]           -938.681692623582535

 OPT| **************************************************************************
 OPT| Step number                                                             62
 OPT| Optimization method                                                  LBFGS
 OPT| Total energy [hartree]                                     -938.6816926236
 OPT| Effective energy change [hartree]                            -0.0001629315
 OPT| Decrease in energy                                                     YES
 OPT| Used time [s]                                                       68.522
 OPT|
 OPT| Maximum step size                                             0.0064872222
 OPT| Convergence limit for maximum step size                       0.0030000000
 OPT| Maximum step size is converged                                          NO
 OPT|
 OPT| RMS step size                                                 0.0010563375
 OPT| Convergence limit for RMS step size                           0.0015000000
 OPT| RMS step size is converged                                             YES
 OPT|
 OPT| Maximum gradient                                              0.0019191866
 OPT| Convergence limit for maximum gradient                        0.0010000000
 OPT| Maximum gradient is converged                                           NO
 OPT|
 OPT| RMS gradient                                                  0.0003911739
 OPT| Convergence limit for RMS gradient                            0.0003000000
 OPT| RMS gradient is converged                                               NO
 OPT| **************************************************************************
 OPT| Estimated peak process memory after this step [MiB]                   1796

 --------------------------
 OPTIMIZATION STEP:     63
 --------------------------

 Number of electrons:                                                        424
 Number of occupied orbitals:                                                212
 Number of molecular orbitals:                                               212

 Number of orbital functions:                                                326
 Number of independent orbital functions:                                    326

 Extrapolation method: ASPC


 SCF WAVEFUNCTION OPTIMIZATION

  ----------------------------------- OT ---------------------------------------
  Minimizer      : DIIS                : direct inversion
                                         in the iterative subspace
                                         using   7 DIIS vectors
                                         safer DIIS on
  Preconditioner : FULL_SINGLE_INVERSE : inversion of 
                                         H + eS - 2*(Sc)(c^T*H*c+const)(Sc)^T
  Precond_solver : DEFAULT
  stepsize       :    0.08000000                  energy_gap     :    0.08000000
  eps_taylor     :   0.10000E-15                  max_taylor     :             4
  ----------------------------------- OT ---------------------------------------

  Step     Update method      Time    Convergence         Total energy    Change
  ------------------------------------------------------------------------------
     1 OT DIIS     0.80E-01    4.8     0.00027093      -938.6813055999 -9.39E+02
     2 OT DIIS     0.80E-01    6.1     0.00017677      -938.6815860253 -2.80E-04
     3 OT DIIS     0.80E-01    6.1     0.00017426      -938.6816673494 -8.13E-05
     4 OT DIIS     0.80E-01    6.1     0.00010813      -938.6817354251 -6.81E-05
     5 OT DIIS     0.80E-01    6.1     0.00006510      -938.6817517285 -1.63E-05
     6 OT DIIS     0.80E-01    6.1     0.00002633      -938.6817587117 -6.98E-06
     7 OT DIIS     0.80E-01    6.1     0.00002213      -938.6817602454 -1.53E-06
     8 OT DIIS     0.80E-01    6.1     0.00001264      -938.6817610018 -7.56E-07
     9 OT DIIS     0.80E-01    6.1     0.00000848      -938.6817613188 -3.17E-07

  *** SCF run converged in     9 steps ***


  Electronic density on regular grids:       -423.9999940428        0.0000059572
  Core density on regular grids:              423.9999999740       -0.0000000260
  Total charge density on r-space grids:        0.0000059312
  Total charge density g-space grids:           0.0000059312

  Overlap energy of the core charge distribution:               0.00000006249396
  Self energy of the core charge distribution:              -2435.54055198066590
  Core Hamiltonian energy:                                    709.26598326714804
  Hartree energy:                                            1010.70985315875043
  Exchange-correlation energy:                               -223.11704582649205

  Total energy:                                              -938.68176131876544

 ENERGY| Total FORCE_EVAL ( QS ) energy [hartree]           -938.681761486039022

 OPT| **************************************************************************
 OPT| Step number                                                             63
 OPT| Optimization method                                                  LBFGS
 OPT| Total energy [hartree]                                     -938.6817614860
 OPT| Effective energy change [hartree]                            -0.0000688625
 OPT| Decrease in energy                                                     YES
 OPT| Used time [s]                                                       62.458
 OPT|
 OPT| Maximum step size                                             0.0110035518
 OPT| Convergence limit for maximum step size                       0.0030000000
 OPT| Maximum step size is converged                                          NO
 OPT|
 OPT| RMS step size                                                 0.0015073982
 OPT| Convergence limit for RMS step size                           0.0015000000
 OPT| RMS step size is converged                                              NO
 OPT|
 OPT| Maximum gradient                                              0.0017111796
 OPT| Convergence limit for maximum gradient                        0.0010000000
 OPT| Maximum gradient is converged                                           NO
 OPT|
 OPT| RMS gradient                                                  0.0002926018
 OPT| Convergence limit for RMS gradient                            0.0003000000
 OPT| RMS gradient is converged                                              YES
 OPT| **************************************************************************
 OPT| Estimated peak process memory after this step [MiB]                   1796

 --------------------------
 OPTIMIZATION STEP:     64
 --------------------------

 Number of electrons:                                                        424
 Number of occupied orbitals:                                                212
 Number of molecular orbitals:                                               212

 Number of orbital functions:                                                326
 Number of independent orbital functions:                                    326

 Extrapolation method: ASPC


 SCF WAVEFUNCTION OPTIMIZATION

  ----------------------------------- OT ---------------------------------------
  Minimizer      : DIIS                : direct inversion
                                         in the iterative subspace
                                         using   7 DIIS vectors
                                         safer DIIS on
  Preconditioner : FULL_SINGLE_INVERSE : inversion of 
                                         H + eS - 2*(Sc)(c^T*H*c+const)(Sc)^T
  Precond_solver : DEFAULT
  stepsize       :    0.08000000                  energy_gap     :    0.08000000
  eps_taylor     :   0.10000E-15                  max_taylor     :             4
  ----------------------------------- OT ---------------------------------------

  Step     Update method      Time    Convergence         Total energy    Change
  ------------------------------------------------------------------------------
     1 OT DIIS     0.80E-01    4.8     0.00011656      -938.6817459104 -9.39E+02
     2 OT DIIS     0.80E-01    6.1     0.00008143      -938.6817950969 -4.92E-05
     3 OT DIIS     0.80E-01    6.1     0.00007613      -938.6818083169 -1.32E-05
     4 OT DIIS     0.80E-01    6.1     0.00004139      -938.6818217795 -1.35E-05
     5 OT DIIS     0.80E-01    6.1     0.00002708      -938.6818247932 -3.01E-06
     6 OT DIIS     0.80E-01    6.1     0.00001279      -938.6818259234 -1.13E-06
     7 OT DIIS     0.80E-01    6.1     0.00001024      -938.6818262308 -3.07E-07
     8 OT DIIS     0.80E-01    6.1     0.00000559      -938.6818264259 -1.95E-07

  *** SCF run converged in     8 steps ***


  Electronic density on regular grids:       -423.9999940289        0.0000059711
  Core density on regular grids:              423.9999999740       -0.0000000260
  Total charge density on r-space grids:        0.0000059452
  Total charge density g-space grids:           0.0000059452

  Overlap energy of the core charge distribution:               0.00000006253625
  Self energy of the core charge distribution:              -2435.54055198066590
  Core Hamiltonian energy:                                    709.27069201617212
  Hartree energy:                                            1010.70641712670465
  Exchange-correlation energy:                               -223.11838365060981

  Total energy:                                              -938.68182642586248

 ENERGY| Total FORCE_EVAL ( QS ) energy [hartree]           -938.681826520984032

 OPT| **************************************************************************
 OPT| Step number                                                             64
 OPT| Optimization method                                                  LBFGS
 OPT| Total energy [hartree]                                     -938.6818265210
 OPT| Effective energy change [hartree]                            -0.0000650349
 OPT| Decrease in energy                                                     YES
 OPT| Used time [s]                                                       56.368
 OPT|
 OPT| Maximum step size                                             0.0189873445
 OPT| Convergence limit for maximum step size                       0.0030000000
 OPT| Maximum step size is converged                                          NO
 OPT|
 OPT| RMS step size                                                 0.0024816631
 OPT| Convergence limit for RMS step size                           0.0015000000
 OPT| RMS step size is converged                                              NO
 OPT|
 OPT| Maximum gradient                                              0.0018107120
 OPT| Convergence limit for maximum gradient                        0.0010000000
 OPT| Maximum gradient is converged                                           NO
 OPT|
 OPT| RMS gradient                                                  0.0003358338
 OPT| Convergence limit for RMS gradient                            0.0003000000
 OPT| RMS gradient is converged                                               NO
 OPT| **************************************************************************
 OPT| Estimated peak process memory after this step [MiB]                   1796

 --------------------------
 OPTIMIZATION STEP:     65
 --------------------------

 Number of electrons:                                                        424
 Number of occupied orbitals:                                                212
 Number of molecular orbitals:                                               212

 Number of orbital functions:                                                326
 Number of independent orbital functions:                                    326

 Extrapolation method: ASPC


 SCF WAVEFUNCTION OPTIMIZATION

  ----------------------------------- OT ---------------------------------------
  Minimizer      : DIIS                : direct inversion
                                         in the iterative subspace
                                         using   7 DIIS vectors
                                         safer DIIS on
  Preconditioner : FULL_SINGLE_INVERSE : inversion of 
                                         H + eS - 2*(Sc)(c^T*H*c+const)(Sc)^T
  Precond_solver : DEFAULT
  stepsize       :    0.08000000                  energy_gap     :    0.08000000
  eps_taylor     :   0.10000E-15                  max_taylor     :             4
  ----------------------------------- OT ---------------------------------------

  Step     Update method      Time    Convergence         Total energy    Change
  ------------------------------------------------------------------------------
     1 OT DIIS     0.80E-01    4.8     0.00009794      -938.6818727414 -9.39E+02
     2 OT DIIS     0.80E-01    6.1     0.00007273      -938.6819101479 -3.74E-05
     3 OT DIIS     0.80E-01    6.1     0.00009198      -938.6819183188 -8.17E-06
     4 OT DIIS     0.80E-01    6.1     0.00003778      -938.6819322354 -1.39E-05
     5 OT DIIS     0.80E-01    6.1     0.00002354      -938.6819346658 -2.43E-06
     6 OT DIIS     0.80E-01    6.1     0.00001270      -938.6819355250 -8.59E-07
     7 OT DIIS     0.80E-01    6.1     0.00000853      -938.6819358805 -3.56E-07

  *** SCF run converged in     7 steps ***


  Electronic density on regular grids:       -423.9999940219        0.0000059781
  Core density on regular grids:              423.9999999741       -0.0000000259
  Total charge density on r-space grids:        0.0000059523
  Total charge density g-space grids:           0.0000059523

  Overlap energy of the core charge distribution:               0.00000006311604
  Self energy of the core charge distribution:              -2435.54055198066590
  Core Hamiltonian energy:                                    709.27936719009392
  Hartree energy:                                            1010.70037231183380
  Exchange-correlation energy:                               -223.12112346489366

  Total energy:                                              -938.68193588051554

 ENERGY| Total FORCE_EVAL ( QS ) energy [hartree]           -938.681936137530101

 OPT| **************************************************************************
 OPT| Step number                                                             65
 OPT| Optimization method                                                  LBFGS
 OPT| Total energy [hartree]                                     -938.6819361375
 OPT| Effective energy change [hartree]                            -0.0001096165
 OPT| Decrease in energy                                                     YES
 OPT| Used time [s]                                                       50.348
 OPT|
 OPT| Maximum step size                                             0.0373173240
 OPT| Convergence limit for maximum step size                       0.0030000000
 OPT| Maximum step size is converged                                          NO
 OPT|
 OPT| RMS step size                                                 0.0052965293
 OPT| Convergence limit for RMS step size                           0.0015000000
 OPT| RMS step size is converged                                              NO
 OPT|
 OPT| Maximum gradient                                              0.0031731241
 OPT| Convergence limit for maximum gradient                        0.0010000000
 OPT| Maximum gradient is converged                                           NO
 OPT|
 OPT| RMS gradient                                                  0.0005336810
 OPT| Convergence limit for RMS gradient                            0.0003000000
 OPT| RMS gradient is converged                                               NO
 OPT| **************************************************************************
 OPT| Estimated peak process memory after this step [MiB]                   1796

 --------------------------
 OPTIMIZATION STEP:     66
 --------------------------

 Number of electrons:                                                        424
 Number of occupied orbitals:                                                212
 Number of molecular orbitals:                                               212

 Number of orbital functions:                                                326
 Number of independent orbital functions:                                    326

 Extrapolation method: ASPC


 SCF WAVEFUNCTION OPTIMIZATION

  ----------------------------------- OT ---------------------------------------
  Minimizer      : DIIS                : direct inversion
                                         in the iterative subspace
                                         using   7 DIIS vectors
                                         safer DIIS on
  Preconditioner : FULL_SINGLE_INVERSE : inversion of 
                                         H + eS - 2*(Sc)(c^T*H*c+const)(Sc)^T
  Precond_solver : DEFAULT
  stepsize       :    0.08000000                  energy_gap     :    0.08000000
  eps_taylor     :   0.10000E-15                  max_taylor     :             4
  ----------------------------------- OT ---------------------------------------

  Step     Update method      Time    Convergence         Total energy    Change
  ------------------------------------------------------------------------------
     1 OT DIIS     0.80E-01    4.8     0.00008849      -938.6819989124 -9.39E+02
     2 OT DIIS     0.80E-01    6.1     0.00006995      -938.6820233185 -2.44E-05
     3 OT DIIS     0.80E-01    6.1     0.00007678      -938.6820272362 -3.92E-06
     4 OT DIIS     0.80E-01    6.0     0.00003296      -938.6820341220 -6.89E-06
     5 OT DIIS     0.80E-01    6.1     0.00002028      -938.6820362495 -2.13E-06
     6 OT DIIS     0.80E-01    6.1     0.00001146      -938.6820370158 -7.66E-07
     7 OT DIIS     0.80E-01    6.1     0.00000827      -938.6820373367 -3.21E-07

  *** SCF run converged in     7 steps ***


  Electronic density on regular grids:       -423.9999940294        0.0000059706
  Core density on regular grids:              423.9999999743       -0.0000000257
  Total charge density on r-space grids:        0.0000059449
  Total charge density g-space grids:           0.0000059449

  Overlap energy of the core charge distribution:               0.00000006184330
  Self energy of the core charge distribution:              -2435.54055198066590
  Core Hamiltonian energy:                                    709.28154274289227
  Hartree energy:                                            1010.69798423923464
  Exchange-correlation energy:                               -223.12101239995698

  Total energy:                                              -938.68203733665257

 ENERGY| Total FORCE_EVAL ( QS ) energy [hartree]           -938.682037559530841

 OPT| **************************************************************************
 OPT| Step number                                                             66
 OPT| Optimization method                                                  LBFGS
 OPT| Total energy [hartree]                                     -938.6820375595
 OPT| Effective energy change [hartree]                            -0.0001014220
 OPT| Decrease in energy                                                     YES
 OPT| Used time [s]                                                       50.291
 OPT|
 OPT| Maximum step size                                             0.0466574969
 OPT| Convergence limit for maximum step size                       0.0030000000
 OPT| Maximum step size is converged                                          NO
 OPT|
 OPT| RMS step size                                                 0.0070260815
 OPT| Convergence limit for RMS step size                           0.0015000000
 OPT| RMS step size is converged                                              NO
 OPT|
 OPT| Maximum gradient                                              0.0033694087
 OPT| Convergence limit for maximum gradient                        0.0010000000
 OPT| Maximum gradient is converged                                           NO
 OPT|
 OPT| RMS gradient                                                  0.0005631594
 OPT| Convergence limit for RMS gradient                            0.0003000000
 OPT| RMS gradient is converged                                               NO
 OPT| **************************************************************************
 OPT| Estimated peak process memory after this step [MiB]                   1796

 --------------------------
 OPTIMIZATION STEP:     67
 --------------------------

 Number of electrons:                                                        424
 Number of occupied orbitals:                                                212
 Number of molecular orbitals:                                               212

 Number of orbital functions:                                                326
 Number of independent orbital functions:                                    326

 Extrapolation method: ASPC


 SCF WAVEFUNCTION OPTIMIZATION

  ----------------------------------- OT ---------------------------------------
  Minimizer      : DIIS                : direct inversion
                                         in the iterative subspace
                                         using   7 DIIS vectors
                                         safer DIIS on
  Preconditioner : FULL_SINGLE_INVERSE : inversion of 
                                         H + eS - 2*(Sc)(c^T*H*c+const)(Sc)^T
  Precond_solver : DEFAULT
  stepsize       :    0.08000000                  energy_gap     :    0.08000000
  eps_taylor     :   0.10000E-15                  max_taylor     :             4
  ----------------------------------- OT ---------------------------------------

  Step     Update method      Time    Convergence         Total energy    Change
  ------------------------------------------------------------------------------
     1 OT DIIS     0.80E-01    4.9     0.00023095      -938.6817764608 -9.39E+02
     2 OT DIIS     0.80E-01    6.1     0.00015416      -938.6819881738 -2.12E-04
     3 OT DIIS     0.80E-01    6.1     0.00017641      -938.6820489098 -6.07E-05
     4 OT DIIS     0.80E-01    6.1     0.00010010      -938.6821055853 -5.67E-05
     5 OT DIIS     0.80E-01    6.1     0.00003925      -938.6821203354 -1.48E-05
     6 OT DIIS     0.80E-01    6.1     0.00002049      -938.6821243657 -4.03E-06
     7 OT DIIS     0.80E-01    6.1     0.00001485      -938.6821253743 -1.01E-06
     8 OT DIIS     0.80E-01    6.1     0.00000965      -938.6821258283 -4.54E-07

  *** SCF run converged in     8 steps ***


  Electronic density on regular grids:       -423.9999940485        0.0000059515
  Core density on regular grids:              423.9999999743       -0.0000000257
  Total charge density on r-space grids:        0.0000059258
  Total charge density g-space grids:           0.0000059258

  Overlap energy of the core charge distribution:               0.00000006229888
  Self energy of the core charge distribution:              -2435.54055198066590
  Core Hamiltonian energy:                                    709.27833463838090
  Hartree energy:                                            1010.70053967864601
  Exchange-correlation energy:                               -223.12044822699502

  Total energy:                                              -938.68212582833507

 ENERGY| Total FORCE_EVAL ( QS ) energy [hartree]           -938.682125992655870

 OPT| **************************************************************************
 OPT| Step number                                                             67
 OPT| Optimization method                                                  LBFGS
 OPT| Total energy [hartree]                                     -938.6821259927
 OPT| Effective energy change [hartree]                            -0.0000884331
 OPT| Decrease in energy                                                     YES
 OPT| Used time [s]                                                       56.408
 OPT|
 OPT| Maximum step size                                             0.0106183269
 OPT| Convergence limit for maximum step size                       0.0030000000
 OPT| Maximum step size is converged                                          NO
 OPT|
 OPT| RMS step size                                                 0.0016482234
 OPT| Convergence limit for RMS step size                           0.0015000000
 OPT| RMS step size is converged                                              NO
 OPT|
 OPT| Maximum gradient                                              0.0013857628
 OPT| Convergence limit for maximum gradient                        0.0010000000
 OPT| Maximum gradient is converged                                           NO
 OPT|
 OPT| RMS gradient                                                  0.0003407631
 OPT| Convergence limit for RMS gradient                            0.0003000000
 OPT| RMS gradient is converged                                               NO
 OPT| **************************************************************************
 OPT| Estimated peak process memory after this step [MiB]                   1796

 --------------------------
 OPTIMIZATION STEP:     68
 --------------------------

 Number of electrons:                                                        424
 Number of occupied orbitals:                                                212
 Number of molecular orbitals:                                               212

 Number of orbital functions:                                                326
 Number of independent orbital functions:                                    326

 Extrapolation method: ASPC


 SCF WAVEFUNCTION OPTIMIZATION

  ----------------------------------- OT ---------------------------------------
  Minimizer      : DIIS                : direct inversion
                                         in the iterative subspace
                                         using   7 DIIS vectors
                                         safer DIIS on
  Preconditioner : FULL_SINGLE_INVERSE : inversion of 
                                         H + eS - 2*(Sc)(c^T*H*c+const)(Sc)^T
  Precond_solver : DEFAULT
  stepsize       :    0.08000000                  energy_gap     :    0.08000000
  eps_taylor     :   0.10000E-15                  max_taylor     :             4
  ----------------------------------- OT ---------------------------------------

  Step     Update method      Time    Convergence         Total energy    Change
  ------------------------------------------------------------------------------
     1 OT DIIS     0.80E-01    4.8     0.00029428      -938.6816445038 -9.39E+02
     2 OT DIIS     0.80E-01    6.1     0.00019926      -938.6820005518 -3.56E-04
     3 OT DIIS     0.80E-01    6.1     0.00025700      -938.6821046142 -1.04E-04
     4 OT DIIS     0.80E-01    6.1     0.00012568      -938.6822115742 -1.07E-04
     5 OT DIIS     0.80E-01    6.1     0.00005049      -938.6822330818 -2.15E-05
     6 OT DIIS     0.80E-01    6.1     0.00003387      -938.6822384191 -5.34E-06
     7 OT DIIS     0.80E-01    6.1     0.00002206      -938.6822400571 -1.64E-06
     8 OT DIIS     0.80E-01    6.1     0.00001122      -938.6822409846 -9.28E-07
     9 OT DIIS     0.80E-01    6.1     0.00000703      -938.6822412824 -2.98E-07

  *** SCF run converged in     9 steps ***


  Electronic density on regular grids:       -423.9999940887        0.0000059113
  Core density on regular grids:              423.9999999744       -0.0000000256
  Total charge density on r-space grids:        0.0000058856
  Total charge density g-space grids:           0.0000058856

  Overlap energy of the core charge distribution:               0.00000006223368
  Self energy of the core charge distribution:              -2435.54055198066590
  Core Hamiltonian energy:                                    709.26710187406877
  Hartree energy:                                            1010.70838183763203
  Exchange-correlation energy:                               -223.11717307569535

  Total energy:                                              -938.68224128242673

 ENERGY| Total FORCE_EVAL ( QS ) energy [hartree]           -938.682241387374461

 OPT| **************************************************************************
 OPT| Step number                                                             68
 OPT| Optimization method                                                  LBFGS
 OPT| Total energy [hartree]                                     -938.6822413874
 OPT| Effective energy change [hartree]                            -0.0001153947
 OPT| Decrease in energy                                                     YES
 OPT| Used time [s]                                                       62.445
 OPT|
 OPT| Maximum step size                                             0.0290916661
 OPT| Convergence limit for maximum step size                       0.0030000000
 OPT| Maximum step size is converged                                          NO
 OPT|
 OPT| RMS step size                                                 0.0044076001
 OPT| Convergence limit for RMS step size                           0.0015000000
 OPT| RMS step size is converged                                              NO
 OPT|
 OPT| Maximum gradient                                              0.0025497276
 OPT| Convergence limit for maximum gradient                        0.0010000000
 OPT| Maximum gradient is converged                                           NO
 OPT|
 OPT| RMS gradient                                                  0.0003898196
 OPT| Convergence limit for RMS gradient                            0.0003000000
 OPT| RMS gradient is converged                                               NO
 OPT| **************************************************************************
 OPT| Estimated peak process memory after this step [MiB]                   1796

 --------------------------
 OPTIMIZATION STEP:     69
 --------------------------

 Number of electrons:                                                        424
 Number of occupied orbitals:                                                212
 Number of molecular orbitals:                                               212

 Number of orbital functions:                                                326
 Number of independent orbital functions:                                    326

 Extrapolation method: ASPC


 SCF WAVEFUNCTION OPTIMIZATION

  ----------------------------------- OT ---------------------------------------
  Minimizer      : DIIS                : direct inversion
                                         in the iterative subspace
                                         using   7 DIIS vectors
                                         safer DIIS on
  Preconditioner : FULL_SINGLE_INVERSE : inversion of 
                                         H + eS - 2*(Sc)(c^T*H*c+const)(Sc)^T
  Precond_solver : DEFAULT
  stepsize       :    0.08000000                  energy_gap     :    0.08000000
  eps_taylor     :   0.10000E-15                  max_taylor     :             4
  ----------------------------------- OT ---------------------------------------

  Step     Update method      Time    Convergence         Total energy    Change
  ------------------------------------------------------------------------------
     1 OT DIIS     0.80E-01    4.9     0.00010587      -938.6823779891 -9.39E+02
     2 OT DIIS     0.80E-01    6.1     0.00009574      -938.6824160393 -3.81E-05
     3 OT DIIS     0.80E-01    6.1     0.00009210      -938.6824249381 -8.90E-06
     4 OT DIIS     0.80E-01    6.1     0.00004485      -938.6824396408 -1.47E-05
     5 OT DIIS     0.80E-01    6.1     0.00002337      -938.6824434847 -3.84E-06
     6 OT DIIS     0.80E-01    6.1     0.00001478      -938.6824444642 -9.80E-07
     7 OT DIIS     0.80E-01    6.1     0.00000822      -938.6824448813 -4.17E-07

  *** SCF run converged in     7 steps ***


  Electronic density on regular grids:       -423.9999941362        0.0000058638
  Core density on regular grids:              423.9999999743       -0.0000000257
  Total charge density on r-space grids:        0.0000058381
  Total charge density g-space grids:           0.0000058381

  Overlap energy of the core charge distribution:               0.00000006256003
  Self energy of the core charge distribution:              -2435.54055198066590
  Core Hamiltonian energy:                                    709.25229416351863
  Hartree energy:                                            1010.71910027466390
  Exchange-correlation energy:                               -223.11328740139615

  Total energy:                                              -938.68244488131950

 ENERGY| Total FORCE_EVAL ( QS ) energy [hartree]           -938.682445147186399

 Number of electrons:                                                        424
 Number of occupied orbitals:                                                212
 Number of molecular orbitals:                                               212

 Number of orbital functions:                                                326
 Number of independent orbital functions:                                    326

 Extrapolation method: ASPC


 SCF WAVEFUNCTION OPTIMIZATION

  ----------------------------------- OT ---------------------------------------
  Minimizer      : DIIS                : direct inversion
                                         in the iterative subspace
                                         using   7 DIIS vectors
                                         safer DIIS on
  Preconditioner : FULL_SINGLE_INVERSE : inversion of 
                                         H + eS - 2*(Sc)(c^T*H*c+const)(Sc)^T
  Precond_solver : DEFAULT
  stepsize       :    0.08000000                  energy_gap     :    0.08000000
  eps_taylor     :   0.10000E-15                  max_taylor     :             4
  ----------------------------------- OT ---------------------------------------

  Step     Update method      Time    Convergence         Total energy    Change
  ------------------------------------------------------------------------------
     1 OT DIIS     0.80E-01    4.8     0.00070443      -938.6789106482 -9.39E+02
     2 OT DIIS     0.80E-01    6.1     0.00051741      -938.6807796602 -1.87E-03
     3 OT DIIS     0.80E-01    6.1     0.00045090      -938.6813558993 -5.76E-04
     4 OT DIIS     0.80E-01    6.1     0.00021160      -938.6820102879 -6.54E-04
     5 OT DIIS     0.80E-01    6.1     0.00016021      -938.6820876927 -7.74E-05
     6 OT DIIS     0.80E-01    6.1     0.00006851      -938.6821240751 -3.64E-05
     7 OT DIIS     0.80E-01    6.1     0.00005057      -938.6821332653 -9.19E-06
     8 OT DIIS     0.80E-01    6.1     0.00003220      -938.6821381127 -4.85E-06
     9 OT DIIS     0.80E-01    6.1     0.00002071      -938.6821398877 -1.78E-06
    10 OT DIIS     0.80E-01    6.1     0.00001282      -938.6821409048 -1.02E-06
    11 OT DIIS     0.80E-01    6.1     0.00001060      -938.6821413628 -4.58E-07
    12 OT DIIS     0.80E-01    6.1     0.00000825      -938.6821417549 -3.92E-07

  *** SCF run converged in    12 steps ***


  Electronic density on regular grids:       -423.9999943371        0.0000056629
  Core density on regular grids:              423.9999999741       -0.0000000259
  Total charge density on r-space grids:        0.0000056370
  Total charge density g-space grids:           0.0000056370

  Overlap energy of the core charge distribution:               0.00000006068570
  Self energy of the core charge distribution:              -2435.54055198066590
  Core Hamiltonian energy:                                    709.16671967412401
  Hartree energy:                                            1010.78039924732968
  Exchange-correlation energy:                               -223.08870875641117

  Total energy:                                              -938.68214175493767

 ENERGY| Total FORCE_EVAL ( QS ) energy [hartree]           -938.682142096719758

 Number of electrons:                                                        424
 Number of occupied orbitals:                                                212
 Number of molecular orbitals:                                               212

 Number of orbital functions:                                                326
 Number of independent orbital functions:                                    326

 Extrapolation method: ASPC


 SCF WAVEFUNCTION OPTIMIZATION

  ----------------------------------- OT ---------------------------------------
  Minimizer      : DIIS                : direct inversion
                                         in the iterative subspace
                                         using   7 DIIS vectors
                                         safer DIIS on
  Preconditioner : FULL_SINGLE_INVERSE : inversion of 
                                         H + eS - 2*(Sc)(c^T*H*c+const)(Sc)^T
  Precond_solver : DEFAULT
  stepsize       :    0.08000000                  energy_gap     :    0.08000000
  eps_taylor     :   0.10000E-15                  max_taylor     :             4
  ----------------------------------- OT ---------------------------------------

  Step     Update method      Time    Convergence         Total energy    Change
  ------------------------------------------------------------------------------
     1 OT DIIS     0.80E-01    4.8     0.00234294      -938.6481294556 -9.39E+02
     2 OT DIIS     0.80E-01    6.1     0.00173620      -938.6683135888 -2.02E-02
     3 OT DIIS     0.80E-01    6.1     0.00151193      -938.6745010097 -6.19E-03
     4 OT DIIS     0.80E-01    6.1     0.00089511      -938.6810792493 -6.58E-03
     5 OT DIIS     0.80E-01    6.1     0.00055688      -938.6820703347 -9.91E-04
     6 OT DIIS     0.80E-01    6.1     0.00020879      -938.6824781445 -4.08E-04
     7 OT DIIS     0.80E-01    6.1     0.00014780      -938.6825611057 -8.30E-05
     8 OT DIIS     0.80E-01    6.1     0.00009633      -938.6826022670 -4.12E-05
     9 OT DIIS     0.80E-01    6.1     0.00005831      -938.6826162334 -1.40E-05
    10 OT DIIS     0.80E-01    6.1     0.00003458      -938.6826245915 -8.36E-06
    11 OT DIIS     0.80E-01    6.1     0.00002592      -938.6826272626 -2.67E-06
    12 OT DIIS     0.80E-01    6.1     0.00001863      -938.6826292774 -2.01E-06
    13 OT DIIS     0.80E-01    6.1     0.00001867      -938.6826303677 -1.09E-06
    14 OT DIIS     0.80E-01    6.1     0.00001423      -938.6826313585 -9.91E-07
    15 OT DIIS     0.80E-01    6.1     0.00001169      -938.6826322938 -9.35E-07
    16 OT DIIS     0.80E-01    6.1     0.00000977      -938.6826330204 -7.27E-07

  *** SCF run converged in    16 steps ***


  Electronic density on regular grids:       -423.9999941909        0.0000058091
  Core density on regular grids:              423.9999999741       -0.0000000259
  Total charge density on r-space grids:        0.0000057832
  Total charge density g-space grids:           0.0000057832

  Overlap energy of the core charge distribution:               0.00000006239436
  Self energy of the core charge distribution:              -2435.54055198066590
  Core Hamiltonian energy:                                    709.22407245412978
  Hartree energy:                                            1010.73938477035836
  Exchange-correlation energy:                               -223.10553832658223

  Total energy:                                              -938.68263302036553

 ENERGY| Total FORCE_EVAL ( QS ) energy [hartree]           -938.682633537033780

 OPT| **************************************************************************
 OPT| Step number                                                             69
 OPT| Optimization method                                                  LBFGS
 OPT| Total energy [hartree]                                     -938.6826335370
 OPT| Effective energy change [hartree]                            -0.0003921497
 OPT| Decrease in energy                                                     YES
 OPT| Used time [s]                                                      236.096
 OPT|
 OPT| Maximum step size                                             0.1251850373
 OPT| Convergence limit for maximum step size                       0.0030000000
 OPT| Maximum step size is converged                                          NO
 OPT|
 OPT| RMS step size                                                 0.0179449822
 OPT| Convergence limit for RMS step size                           0.0015000000
 OPT| RMS step size is converged                                              NO
 OPT|
 OPT| Maximum gradient                                              0.0069073553
 OPT| Convergence limit for maximum gradient                        0.0010000000
 OPT| Maximum gradient is converged                                           NO
 OPT|
 OPT| RMS gradient                                                  0.0009422873
 OPT| Convergence limit for RMS gradient                            0.0003000000
 OPT| RMS gradient is converged                                               NO
 OPT| **************************************************************************
 OPT| Estimated peak process memory after this step [MiB]                   1796

 --------------------------
 OPTIMIZATION STEP:     70
 --------------------------

 Number of electrons:                                                        424
 Number of occupied orbitals:                                                212
 Number of molecular orbitals:                                               212

 Number of orbital functions:                                                326
 Number of independent orbital functions:                                    326

 Extrapolation method: ASPC


 SCF WAVEFUNCTION OPTIMIZATION

  ----------------------------------- OT ---------------------------------------
  Minimizer      : DIIS                : direct inversion
                                         in the iterative subspace
                                         using   7 DIIS vectors
                                         safer DIIS on
  Preconditioner : FULL_SINGLE_INVERSE : inversion of 
                                         H + eS - 2*(Sc)(c^T*H*c+const)(Sc)^T
  Precond_solver : DEFAULT
  stepsize       :    0.08000000                  energy_gap     :    0.08000000
  eps_taylor     :   0.10000E-15                  max_taylor     :             4
  ----------------------------------- OT ---------------------------------------

  Step     Update method      Time    Convergence         Total energy    Change
  ------------------------------------------------------------------------------
     1 OT DIIS     0.80E-01    4.9     0.00322886      -938.6104912578 -9.39E+02
     2 OT DIIS     0.80E-01    6.1     0.00231039      -938.6514460289 -4.10E-02
     3 OT DIIS     0.80E-01    6.1     0.00208914      -938.6647753039 -1.33E-02
     4 OT DIIS     0.80E-01    6.1     0.00118883      -938.6789110741 -1.41E-02
     5 OT DIIS     0.80E-01    6.1     0.00075130      -938.6808320333 -1.92E-03
     6 OT DIIS     0.80E-01    6.1     0.00031962      -938.6817683733 -9.36E-04
     7 OT DIIS     0.80E-01    6.1     0.00025724      -938.6819820489 -2.14E-04
     8 OT DIIS     0.80E-01    6.1     0.00013446      -938.6821034714 -1.21E-04
     9 OT DIIS     0.80E-01    6.1     0.00009181      -938.6821369476 -3.35E-05
    10 OT DIIS     0.80E-01    6.1     0.00004807      -938.6821520516 -1.51E-05
    11 OT DIIS     0.80E-01    6.1     0.00003850      -938.6821577344 -5.68E-06
    12 OT DIIS     0.80E-01    6.1     0.00002618      -938.6821609036 -3.17E-06
    13 OT DIIS     0.80E-01    6.1     0.00002520      -938.6821631062 -2.20E-06
    14 OT DIIS     0.80E-01    6.1     0.00001903      -938.6821647406 -1.63E-06
    15 OT DIIS     0.80E-01    6.1     0.00001575      -938.6821661210 -1.38E-06
    16 OT DIIS     0.80E-01    6.1     0.00001321      -938.6821672158 -1.09E-06
    17 OT DIIS     0.80E-01    6.1     0.00001041      -938.6821681405 -9.25E-07
    18 OT DIIS     0.80E-01    6.1     0.00000905      -938.6821686714 -5.31E-07

  *** SCF run converged in    18 steps ***


  Electronic density on regular grids:       -423.9999944367        0.0000055633
  Core density on regular grids:              423.9999999740       -0.0000000260
  Total charge density on r-space grids:        0.0000055373
  Total charge density g-space grids:           0.0000055373

  Overlap energy of the core charge distribution:               0.00000005807102
  Self energy of the core charge distribution:              -2435.54055198066590
  Core Hamiltonian energy:                                    709.13868169258762
  Hartree energy:                                            1010.79867308427492
  Exchange-correlation energy:                               -223.07897152569430

  Total energy:                                              -938.68216867142644

 ENERGY| Total FORCE_EVAL ( QS ) energy [hartree]           -938.682169141615532

 Number of electrons:                                                        424
 Number of occupied orbitals:                                                212
 Number of molecular orbitals:                                               212

 Number of orbital functions:                                                326
 Number of independent orbital functions:                                    326

 Extrapolation method: ASPC


 SCF WAVEFUNCTION OPTIMIZATION

  ----------------------------------- OT ---------------------------------------
  Minimizer      : DIIS                : direct inversion
                                         in the iterative subspace
                                         using   7 DIIS vectors
                                         safer DIIS on
  Preconditioner : FULL_SINGLE_INVERSE : inversion of 
                                         H + eS - 2*(Sc)(c^T*H*c+const)(Sc)^T
  Precond_solver : DEFAULT
  stepsize       :    0.08000000                  energy_gap     :    0.08000000
  eps_taylor     :   0.10000E-15                  max_taylor     :             4
  ----------------------------------- OT ---------------------------------------

  Step     Update method      Time    Convergence         Total energy    Change
  ------------------------------------------------------------------------------
     1 OT DIIS     0.80E-01    4.9     0.00372642      -938.5986503091 -9.39E+02
     2 OT DIIS     0.80E-01    6.1     0.00280515      -938.6477879947 -4.91E-02
     3 OT DIIS     0.80E-01    6.1     0.00227322      -938.6633195541 -1.55E-02
     4 OT DIIS     0.80E-01    6.1     0.00132856      -938.6790781087 -1.58E-02
     5 OT DIIS     0.80E-01    6.1     0.00085870      -938.6814892568 -2.41E-03
     6 OT DIIS     0.80E-01    6.1     0.00033073      -938.6824002187 -9.11E-04
     7 OT DIIS     0.80E-01    6.1     0.00021701      -938.6825925860 -1.92E-04
     8 OT DIIS     0.80E-01    6.1     0.00015718      -938.6826816557 -8.91E-05
     9 OT DIIS     0.80E-01    6.1     0.00008831      -938.6827143953 -3.27E-05
    10 OT DIIS     0.80E-01    6.1     0.00005197      -938.6827367453 -2.24E-05
    11 OT DIIS     0.80E-01    6.1     0.00004045      -938.6827428606 -6.12E-06
    12 OT DIIS     0.80E-01    6.1     0.00002779      -938.6827476960 -4.84E-06
    13 OT DIIS     0.80E-01    6.1     0.00002736      -938.6827501956 -2.50E-06
    14 OT DIIS     0.80E-01    6.1     0.00002117      -938.6827522664 -2.07E-06
    15 OT DIIS     0.80E-01    6.1     0.00001679      -938.6827541664 -1.90E-06
    16 OT DIIS     0.80E-01    6.1     0.00001404      -938.6827555408 -1.37E-06
    17 OT DIIS     0.80E-01    6.1     0.00001162      -938.6827564019 -8.61E-07
    18 OT DIIS     0.80E-01    6.1     0.00000908      -938.6827570499 -6.48E-07

  *** SCF run converged in    18 steps ***


  Electronic density on regular grids:       -423.9999942282        0.0000057718
  Core density on regular grids:              423.9999999741       -0.0000000259
  Total charge density on r-space grids:        0.0000057459
  Total charge density g-space grids:           0.0000057459

  Overlap energy of the core charge distribution:               0.00000006144817
  Self energy of the core charge distribution:              -2435.54055198066590
  Core Hamiltonian energy:                                    709.20396882120122
  Hartree energy:                                            1010.75328442707882
  Exchange-correlation energy:                               -223.09945837896976

  Total energy:                                              -938.68275704990742

 ENERGY| Total FORCE_EVAL ( QS ) energy [hartree]           -938.682757473964557

 OPT| **************************************************************************
 OPT| Step number                                                             70
 OPT| Optimization method                                                  LBFGS
 OPT| Total energy [hartree]                                     -938.6827574740
 OPT| Effective energy change [hartree]                            -0.0001239369
 OPT| Decrease in energy                                                     YES
 OPT| Used time [s]                                                      234.769
 OPT|
 OPT| Maximum step size                                             0.0451162834
 OPT| Convergence limit for maximum step size                       0.0030000000
 OPT| Maximum step size is converged                                          NO
 OPT|
 OPT| RMS step size                                                 0.0064296863
 OPT| Convergence limit for RMS step size                           0.0015000000
 OPT| RMS step size is converged                                              NO
 OPT|
 OPT| Maximum gradient                                              0.0067508670
 OPT| Convergence limit for maximum gradient                        0.0010000000
 OPT| Maximum gradient is converged                                           NO
 OPT|
 OPT| RMS gradient                                                  0.0009646785
 OPT| Convergence limit for RMS gradient                            0.0003000000
 OPT| RMS gradient is converged                                               NO
 OPT| **************************************************************************
 OPT| Estimated peak process memory after this step [MiB]                   1796

 --------------------------
 OPTIMIZATION STEP:     71
 --------------------------

 Number of electrons:                                                        424
 Number of occupied orbitals:                                                212
 Number of molecular orbitals:                                               212

 Number of orbital functions:                                                326
 Number of independent orbital functions:                                    326

 Extrapolation method: ASPC


 SCF WAVEFUNCTION OPTIMIZATION

  ----------------------------------- OT ---------------------------------------
  Minimizer      : DIIS                : direct inversion
                                         in the iterative subspace
                                         using   7 DIIS vectors
                                         safer DIIS on
  Preconditioner : FULL_SINGLE_INVERSE : inversion of 
                                         H + eS - 2*(Sc)(c^T*H*c+const)(Sc)^T
  Precond_solver : DEFAULT
  stepsize       :    0.08000000                  energy_gap     :    0.08000000
  eps_taylor     :   0.10000E-15                  max_taylor     :             4
  ----------------------------------- OT ---------------------------------------

  Step     Update method      Time    Convergence         Total energy    Change
  ------------------------------------------------------------------------------
     1 OT DIIS     0.80E-01    4.9     0.00286915      -938.6281624640 -9.39E+02
     2 OT DIIS     0.80E-01    6.1     0.00210889      -938.6593884229 -3.12E-02
     3 OT DIIS     0.80E-01    6.1     0.00183346      -938.6692363312 -9.85E-03
     4 OT DIIS     0.80E-01    6.1     0.00123843      -938.6799004322 -1.07E-02
     5 OT DIIS     0.80E-01    6.1     0.00061940      -938.6818837045 -1.98E-03
     6 OT DIIS     0.80E-01    6.1     0.00029459      -938.6826328511 -7.49E-04
     7 OT DIIS     0.80E-01    6.1     0.00022452      -938.6828046286 -1.72E-04
     8 OT DIIS     0.80E-01    6.1     0.00013120      -938.6828995653 -9.49E-05
     9 OT DIIS     0.80E-01    6.1     0.00008237      -938.6829294546 -2.99E-05
    10 OT DIIS     0.80E-01    6.1     0.00004569      -938.6829430169 -1.36E-05
    11 OT DIIS     0.80E-01    6.1     0.00003583      -938.6829482161 -5.20E-06
    12 OT DIIS     0.80E-01    6.1     0.00002554      -938.6829511548 -2.94E-06
    13 OT DIIS     0.80E-01    6.1     0.00002424      -938.6829529645 -1.81E-06
    14 OT DIIS     0.80E-01    6.1     0.00001758      -938.6829545656 -1.60E-06
    15 OT DIIS     0.80E-01    6.1     0.00001499      -938.6829558054 -1.24E-06
    16 OT DIIS     0.80E-01    6.1     0.00001286      -938.6829568315 -1.03E-06
    17 OT DIIS     0.80E-01    6.1     0.00001029      -938.6829576910 -8.59E-07
    18 OT DIIS     0.80E-01    6.1     0.00000895      -938.6829582231 -5.32E-07

  *** SCF run converged in    18 steps ***


  Electronic density on regular grids:       -423.9999944556        0.0000055444
  Core density on regular grids:              423.9999999740       -0.0000000260
  Total charge density on r-space grids:        0.0000055184
  Total charge density g-space grids:           0.0000055184

  Overlap energy of the core charge distribution:               0.00000006382133
  Self energy of the core charge distribution:              -2435.54055198066590
  Core Hamiltonian energy:                                    709.18669182967483
  Hartree energy:                                            1010.76690964968452
  Exchange-correlation energy:                               -223.09600778558868

  Total energy:                                              -938.68295822307368

 ENERGY| Total FORCE_EVAL ( QS ) energy [hartree]           -938.682958733458008

 OPT| **************************************************************************
 OPT| Step number                                                             71
 OPT| Optimization method                                                  LBFGS
 OPT| Total energy [hartree]                                     -938.6829587335
 OPT| Effective energy change [hartree]                            -0.0002012595
 OPT| Decrease in energy                                                     YES
 OPT| Used time [s]                                                      117.337
 OPT|
 OPT| Maximum step size                                             0.0408055398
 OPT| Convergence limit for maximum step size                       0.0030000000
 OPT| Maximum step size is converged                                          NO
 OPT|
 OPT| RMS step size                                                 0.0069060026
 OPT| Convergence limit for RMS step size                           0.0015000000
 OPT| RMS step size is converged                                              NO
 OPT|
 OPT| Maximum gradient                                              0.0079418593
 OPT| Convergence limit for maximum gradient                        0.0010000000
 OPT| Maximum gradient is converged                                           NO
 OPT|
 OPT| RMS gradient                                                  0.0013410939
 OPT| Convergence limit for RMS gradient                            0.0003000000
 OPT| RMS gradient is converged                                               NO
 OPT| **************************************************************************
 OPT| Estimated peak process memory after this step [MiB]                   1796

 --------------------------
 OPTIMIZATION STEP:     72
 --------------------------

 Number of electrons:                                                        424
 Number of occupied orbitals:                                                212
 Number of molecular orbitals:                                               212

 Number of orbital functions:                                                326
 Number of independent orbital functions:                                    326

 Extrapolation method: ASPC


 SCF WAVEFUNCTION OPTIMIZATION

  ----------------------------------- OT ---------------------------------------
  Minimizer      : DIIS                : direct inversion
                                         in the iterative subspace
                                         using   7 DIIS vectors
                                         safer DIIS on
  Preconditioner : FULL_SINGLE_INVERSE : inversion of 
                                         H + eS - 2*(Sc)(c^T*H*c+const)(Sc)^T
  Precond_solver : DEFAULT
  stepsize       :    0.08000000                  energy_gap     :    0.08000000
  eps_taylor     :   0.10000E-15                  max_taylor     :             4
  ----------------------------------- OT ---------------------------------------

  Step     Update method      Time    Convergence         Total energy    Change
  ------------------------------------------------------------------------------
     1 OT DIIS     0.80E-01    4.9     0.00193876      -938.6622453152 -9.39E+02
     2 OT DIIS     0.80E-01    6.1     0.00164687      -938.6738801568 -1.16E-02
     3 OT DIIS     0.80E-01    6.1     0.00107073      -938.6781973630 -4.32E-03
     4 OT DIIS     0.80E-01    6.1     0.00088910      -938.6820597745 -3.86E-03
     5 OT DIIS     0.80E-01    6.1     0.00043183      -938.6830090793 -9.49E-04
     6 OT DIIS     0.80E-01    6.1     0.00018591      -938.6832868280 -2.78E-04
     7 OT DIIS     0.80E-01    6.1     0.00010626      -938.6833625801 -7.58E-05
     8 OT DIIS     0.80E-01    6.1     0.00008170      -938.6833916651 -2.91E-05
     9 OT DIIS     0.80E-01    6.1     0.00005537      -938.6834007374 -9.07E-06
    10 OT DIIS     0.80E-01    6.1     0.00002814      -938.6834082311 -7.49E-06
    11 OT DIIS     0.80E-01    6.1     0.00002442      -938.6834101597 -1.93E-06
    12 OT DIIS     0.80E-01    6.1     0.00001647      -938.6834118604 -1.70E-06
    13 OT DIIS     0.80E-01    6.1     0.00001708      -938.6834125405 -6.80E-07
    14 OT DIIS     0.80E-01    6.1     0.00001127      -938.6834132329 -6.92E-07
    15 OT DIIS     0.80E-01    6.1     0.00000849      -938.6834137420 -5.09E-07

  *** SCF run converged in    15 steps ***


  Electronic density on regular grids:       -423.9999943607        0.0000056393
  Core density on regular grids:              423.9999999740       -0.0000000260
  Total charge density on r-space grids:        0.0000056133
  Total charge density g-space grids:           0.0000056133

  Overlap energy of the core charge distribution:               0.00000006079327
  Self energy of the core charge distribution:              -2435.54055198066590
  Core Hamiltonian energy:                                    709.19104524654688
  Hartree energy:                                            1010.76164204528880
  Exchange-correlation energy:                               -223.09554911401275

  Total energy:                                              -938.68341374204977

 ENERGY| Total FORCE_EVAL ( QS ) energy [hartree]           -938.683414096775778

 OPT| **************************************************************************
 OPT| Step number                                                             72
 OPT| Optimization method                                                  LBFGS
 OPT| Total energy [hartree]                                     -938.6834140968
 OPT| Effective energy change [hartree]                            -0.0004553633
 OPT| Decrease in energy                                                     YES
 OPT| Used time [s]                                                       99.016
 OPT|
 OPT| Maximum step size                                             0.0305718145
 OPT| Convergence limit for maximum step size                       0.0030000000
 OPT| Maximum step size is converged                                          NO
 OPT|
 OPT| RMS step size                                                 0.0042301651
 OPT| Convergence limit for RMS step size                           0.0015000000
 OPT| RMS step size is converged                                              NO
 OPT|
 OPT| Maximum gradient                                              0.0064404896
 OPT| Convergence limit for maximum gradient                        0.0010000000
 OPT| Maximum gradient is converged                                           NO
 OPT|
 OPT| RMS gradient                                                  0.0007735212
 OPT| Convergence limit for RMS gradient                            0.0003000000
 OPT| RMS gradient is converged                                               NO
 OPT| **************************************************************************
 OPT| Estimated peak process memory after this step [MiB]                   1796

 --------------------------
 OPTIMIZATION STEP:     73
 --------------------------

 Number of electrons:                                                        424
 Number of occupied orbitals:                                                212
 Number of molecular orbitals:                                               212

 Number of orbital functions:                                                326
 Number of independent orbital functions:                                    326

 Extrapolation method: ASPC


 SCF WAVEFUNCTION OPTIMIZATION

  ----------------------------------- OT ---------------------------------------
  Minimizer      : DIIS                : direct inversion
                                         in the iterative subspace
                                         using   7 DIIS vectors
                                         safer DIIS on
  Preconditioner : FULL_SINGLE_INVERSE : inversion of 
                                         H + eS - 2*(Sc)(c^T*H*c+const)(Sc)^T
  Precond_solver : DEFAULT
  stepsize       :    0.08000000                  energy_gap     :    0.08000000
  eps_taylor     :   0.10000E-15                  max_taylor     :             4
  ----------------------------------- OT ---------------------------------------

  Step     Update method      Time    Convergence         Total energy    Change
  ------------------------------------------------------------------------------
     1 OT DIIS     0.80E-01    4.9     0.00077233      -938.6803799574 -9.39E+02
     2 OT DIIS     0.80E-01    6.1     0.00063102      -938.6822417927 -1.86E-03
     3 OT DIIS     0.80E-01    6.1     0.00042614      -938.6828807305 -6.39E-04
     4 OT DIIS     0.80E-01    6.1     0.00038348      -938.6834325636 -5.52E-04
     5 OT DIIS     0.80E-01    6.1     0.00016546      -938.6836098898 -1.77E-04
     6 OT DIIS     0.80E-01    6.1     0.00007948      -938.6836686809 -5.88E-05
     7 OT DIIS     0.80E-01    6.1     0.00004648      -938.6836844206 -1.57E-05
     8 OT DIIS     0.80E-01    6.1     0.00003183      -938.6836906221 -6.20E-06
     9 OT DIIS     0.80E-01    6.1     0.00002501      -938.6836924077 -1.79E-06
    10 OT DIIS     0.80E-01    6.1     0.00001213      -938.6836936229 -1.22E-06
    11 OT DIIS     0.80E-01    6.1     0.00001068      -938.6836940888 -4.66E-07
    12 OT DIIS     0.80E-01    6.1     0.00000791      -938.6836943868 -2.98E-07

  *** SCF run converged in    12 steps ***


  Electronic density on regular grids:       -423.9999942582        0.0000057418
  Core density on regular grids:              423.9999999741       -0.0000000259
  Total charge density on r-space grids:        0.0000057159
  Total charge density g-space grids:           0.0000057159

  Overlap energy of the core charge distribution:               0.00000006066758
  Self energy of the core charge distribution:              -2435.54055198066590
  Core Hamiltonian energy:                                    709.20573057893398
  Hartree energy:                                            1010.75067700994316
  Exchange-correlation energy:                               -223.09955005568554

  Total energy:                                              -938.68369438680691

 ENERGY| Total FORCE_EVAL ( QS ) energy [hartree]           -938.683694541437603

 OPT| **************************************************************************
 OPT| Step number                                                             73
 OPT| Optimization method                                                  LBFGS
 OPT| Total energy [hartree]                                     -938.6836945414
 OPT| Effective energy change [hartree]                            -0.0002804447
 OPT| Decrease in energy                                                     YES
 OPT| Used time [s]                                                       80.653
 OPT|
 OPT| Maximum step size                                             0.0389351933
 OPT| Convergence limit for maximum step size                       0.0030000000
 OPT| Maximum step size is converged                                          NO
 OPT|
 OPT| RMS step size                                                 0.0061871694
 OPT| Convergence limit for RMS step size                           0.0015000000
 OPT| RMS step size is converged                                              NO
 OPT|
 OPT| Maximum gradient                                              0.0076411857
 OPT| Convergence limit for maximum gradient                        0.0010000000
 OPT| Maximum gradient is converged                                           NO
 OPT|
 OPT| RMS gradient                                                  0.0008143791
 OPT| Convergence limit for RMS gradient                            0.0003000000
 OPT| RMS gradient is converged                                               NO
 OPT| **************************************************************************
 OPT| Estimated peak process memory after this step [MiB]                   1796

 --------------------------
 OPTIMIZATION STEP:     74
 --------------------------

 Number of electrons:                                                        424
 Number of occupied orbitals:                                                212
 Number of molecular orbitals:                                               212

 Number of orbital functions:                                                326
 Number of independent orbital functions:                                    326

 Extrapolation method: ASPC


 SCF WAVEFUNCTION OPTIMIZATION

  ----------------------------------- OT ---------------------------------------
  Minimizer      : DIIS                : direct inversion
                                         in the iterative subspace
                                         using   7 DIIS vectors
                                         safer DIIS on
  Preconditioner : FULL_SINGLE_INVERSE : inversion of 
                                         H + eS - 2*(Sc)(c^T*H*c+const)(Sc)^T
  Precond_solver : DEFAULT
  stepsize       :    0.08000000                  energy_gap     :    0.08000000
  eps_taylor     :   0.10000E-15                  max_taylor     :             4
  ----------------------------------- OT ---------------------------------------

  Step     Update method      Time    Convergence         Total energy    Change
  ------------------------------------------------------------------------------
     1 OT DIIS     0.80E-01    4.8     0.00027896      -938.6836510776 -9.39E+02
     2 OT DIIS     0.80E-01    6.1     0.00020982      -938.6839305698 -2.79E-04
     3 OT DIIS     0.80E-01    6.1     0.00017919      -938.6840153954 -8.48E-05
     4 OT DIIS     0.80E-01    6.1     0.00013987      -938.6841002706 -8.49E-05
     5 OT DIIS     0.80E-01    6.1     0.00005037      -938.6841275650 -2.73E-05
     6 OT DIIS     0.80E-01    6.1     0.00003339      -938.6841343947 -6.83E-06
     7 OT DIIS     0.80E-01    6.1     0.00002250      -938.6841365438 -2.15E-06
     8 OT DIIS     0.80E-01    6.1     0.00001544      -938.6841377311 -1.19E-06
     9 OT DIIS     0.80E-01    6.1     0.00001078      -938.6841383155 -5.84E-07
    10 OT DIIS     0.80E-01    6.1     0.00000871      -938.6841386700 -3.55E-07

  *** SCF run converged in    10 steps ***


  Electronic density on regular grids:       -423.9999941913        0.0000058087
  Core density on regular grids:              423.9999999740       -0.0000000260
  Total charge density on r-space grids:        0.0000057827
  Total charge density g-space grids:           0.0000057827

  Overlap energy of the core charge distribution:               0.00000006008231
  Self energy of the core charge distribution:              -2435.54055198066590
  Core Hamiltonian energy:                                    709.19009706300881
  Hartree energy:                                            1010.76251468092005
  Exchange-correlation energy:                               -223.09619849334769

  Total energy:                                              -938.68413867000254

 ENERGY| Total FORCE_EVAL ( QS ) energy [hartree]           -938.684138940815615

 OPT| **************************************************************************
 OPT| Step number                                                             74
 OPT| Optimization method                                                  LBFGS
 OPT| Total energy [hartree]                                     -938.6841389408
 OPT| Effective energy change [hartree]                            -0.0004443994
 OPT| Decrease in energy                                                     YES
 OPT| Used time [s]                                                       68.518
 OPT|
 OPT| Maximum step size                                             0.0742945573
 OPT| Convergence limit for maximum step size                       0.0030000000
 OPT| Maximum step size is converged                                          NO
 OPT|
 OPT| RMS step size                                                 0.0073964668
 OPT| Convergence limit for RMS step size                           0.0015000000
 OPT| RMS step size is converged                                              NO
 OPT|
 OPT| Maximum gradient                                              0.0067466979
 OPT| Convergence limit for maximum gradient                        0.0010000000
 OPT| Maximum gradient is converged                                           NO
 OPT|
 OPT| RMS gradient                                                  0.0011610056
 OPT| Convergence limit for RMS gradient                            0.0003000000
 OPT| RMS gradient is converged                                               NO
 OPT| **************************************************************************
 OPT| Estimated peak process memory after this step [MiB]                   1796

 --------------------------
 OPTIMIZATION STEP:     75
 --------------------------

 Number of electrons:                                                        424
 Number of occupied orbitals:                                                212
 Number of molecular orbitals:                                               212

 Number of orbital functions:                                                326
 Number of independent orbital functions:                                    326

 Extrapolation method: ASPC


 SCF WAVEFUNCTION OPTIMIZATION

  ----------------------------------- OT ---------------------------------------
  Minimizer      : DIIS                : direct inversion
                                         in the iterative subspace
                                         using   7 DIIS vectors
                                         safer DIIS on
  Preconditioner : FULL_SINGLE_INVERSE : inversion of 
                                         H + eS - 2*(Sc)(c^T*H*c+const)(Sc)^T
  Precond_solver : DEFAULT
  stepsize       :    0.08000000                  energy_gap     :    0.08000000
  eps_taylor     :   0.10000E-15                  max_taylor     :             4
  ----------------------------------- OT ---------------------------------------

  Step     Update method      Time    Convergence         Total energy    Change
  ------------------------------------------------------------------------------
     1 OT DIIS     0.80E-01    4.9     0.00055420      -938.6823010022 -9.39E+02
     2 OT DIIS     0.80E-01    6.1     0.00035141      -938.6834764493 -1.18E-03
     3 OT DIIS     0.80E-01    6.1     0.00036807      -938.6838271018 -3.51E-04
     4 OT DIIS     0.80E-01    6.1     0.00024211      -938.6840924407 -2.65E-04
     5 OT DIIS     0.80E-01    6.1     0.00013575      -938.6841972548 -1.05E-04
     6 OT DIIS     0.80E-01    6.1     0.00006273      -938.6842338723 -3.66E-05
     7 OT DIIS     0.80E-01    6.1     0.00005445      -938.6842429725 -9.10E-06
     8 OT DIIS     0.80E-01    6.1     0.00002940      -938.6842480543 -5.08E-06
     9 OT DIIS     0.80E-01    6.1     0.00002304      -938.6842502004 -2.15E-06
    10 OT DIIS     0.80E-01    6.1     0.00001519      -938.6842519051 -1.70E-06
    11 OT DIIS     0.80E-01    6.1     0.00001382      -938.6842529567 -1.05E-06
    12 OT DIIS     0.80E-01    6.1     0.00001201      -938.6842538738 -9.17E-07
    13 OT DIIS     0.80E-01    6.1     0.00001098      -938.6842544623 -5.88E-07
    14 OT DIIS     0.80E-01    6.1     0.00000865      -938.6842550097 -5.47E-07

  *** SCF run converged in    14 steps ***


  Electronic density on regular grids:       -423.9999941526        0.0000058474
  Core density on regular grids:              423.9999999739       -0.0000000261
  Total charge density on r-space grids:        0.0000058213
  Total charge density g-space grids:           0.0000058213

  Overlap energy of the core charge distribution:               0.00000006063129
  Self energy of the core charge distribution:              -2435.54055198066590
  Core Hamiltonian energy:                                    709.18445950676551
  Hartree energy:                                            1010.76702038989754
  Exchange-correlation energy:                               -223.09518298629916

  Total energy:                                              -938.68425500967055

 ENERGY| Total FORCE_EVAL ( QS ) energy [hartree]           -938.684255550334569

 OPT| **************************************************************************
 OPT| Step number                                                             75
 OPT| Optimization method                                                  LBFGS
 OPT| Total energy [hartree]                                     -938.6842555503
 OPT| Effective energy change [hartree]                            -0.0001166095
 OPT| Decrease in energy                                                     YES
 OPT| Used time [s]                                                       92.842
 OPT|
 OPT| Maximum step size                                             0.0288882978
 OPT| Convergence limit for maximum step size                       0.0030000000
 OPT| Maximum step size is converged                                          NO
 OPT|
 OPT| RMS step size                                                 0.0049739746
 OPT| Convergence limit for RMS step size                           0.0015000000
 OPT| RMS step size is converged                                              NO
 OPT|
 OPT| Maximum gradient                                              0.0078659646
 OPT| Convergence limit for maximum gradient                        0.0010000000
 OPT| Maximum gradient is converged                                           NO
 OPT|
 OPT| RMS gradient                                                  0.0013689133
 OPT| Convergence limit for RMS gradient                            0.0003000000
 OPT| RMS gradient is converged                                               NO
 OPT| **************************************************************************
 OPT| Estimated peak process memory after this step [MiB]                   1796

 --------------------------
 OPTIMIZATION STEP:     76
 --------------------------

 Number of electrons:                                                        424
 Number of occupied orbitals:                                                212
 Number of molecular orbitals:                                               212

 Number of orbital functions:                                                326
 Number of independent orbital functions:                                    326

 Extrapolation method: ASPC


 SCF WAVEFUNCTION OPTIMIZATION

  ----------------------------------- OT ---------------------------------------
  Minimizer      : DIIS                : direct inversion
                                         in the iterative subspace
                                         using   7 DIIS vectors
                                         safer DIIS on
  Preconditioner : FULL_SINGLE_INVERSE : inversion of 
                                         H + eS - 2*(Sc)(c^T*H*c+const)(Sc)^T
  Precond_solver : DEFAULT
  stepsize       :    0.08000000                  energy_gap     :    0.08000000
  eps_taylor     :   0.10000E-15                  max_taylor     :             4
  ----------------------------------- OT ---------------------------------------

  Step     Update method      Time    Convergence         Total energy    Change
  ------------------------------------------------------------------------------
     1 OT DIIS     0.80E-01    4.9     0.00052069      -938.6830152433 -9.39E+02
     2 OT DIIS     0.80E-01    6.1     0.00033793      -938.6839707256 -9.55E-04
     3 OT DIIS     0.80E-01    6.1     0.00032906      -938.6842040045 -2.33E-04
     4 OT DIIS     0.80E-01    6.1     0.00019673      -938.6844143459 -2.10E-04
     5 OT DIIS     0.80E-01    6.1     0.00013840      -938.6844777336 -6.34E-05
     6 OT DIIS     0.80E-01    6.1     0.00005725      -938.6845093389 -3.16E-05
     7 OT DIIS     0.80E-01    6.1     0.00004862      -938.6845174446 -8.11E-06
     8 OT DIIS     0.80E-01    6.1     0.00002543      -938.6845217799 -4.34E-06
     9 OT DIIS     0.80E-01    6.1     0.00001987      -938.6845234261 -1.65E-06
    10 OT DIIS     0.80E-01    6.1     0.00001341      -938.6845243882 -9.62E-07
    11 OT DIIS     0.80E-01    6.1     0.00001021      -938.6845250077 -6.20E-07
    12 OT DIIS     0.80E-01    6.1     0.00000882      -938.6845254184 -4.11E-07

  *** SCF run converged in    12 steps ***


  Electronic density on regular grids:       -423.9999941551        0.0000058449
  Core density on regular grids:              423.9999999739       -0.0000000261
  Total charge density on r-space grids:        0.0000058188
  Total charge density g-space grids:           0.0000058188

  Overlap energy of the core charge distribution:               0.00000006117736
  Self energy of the core charge distribution:              -2435.54055198066590
  Core Hamiltonian energy:                                    709.18249992872290
  Hartree energy:                                            1010.76913643523108
  Exchange-correlation energy:                               -223.09560986288460

  Total energy:                                              -938.68452541841953

 ENERGY| Total FORCE_EVAL ( QS ) energy [hartree]           -938.684525678616183

 OPT| **************************************************************************
 OPT| Step number                                                             76
 OPT| Optimization method                                                  LBFGS
 OPT| Total energy [hartree]                                     -938.6845256786
 OPT| Effective energy change [hartree]                            -0.0002701283
 OPT| Decrease in energy                                                     YES
 OPT| Used time [s]                                                       80.692
 OPT|
 OPT| Maximum step size                                             0.0143582087
 OPT| Convergence limit for maximum step size                       0.0030000000
 OPT| Maximum step size is converged                                          NO
 OPT|
 OPT| RMS step size                                                 0.0027377276
 OPT| Convergence limit for RMS step size                           0.0015000000
 OPT| RMS step size is converged                                              NO
 OPT|
 OPT| Maximum gradient                                              0.0021570895
 OPT| Convergence limit for maximum gradient                        0.0010000000
 OPT| Maximum gradient is converged                                           NO
 OPT|
 OPT| RMS gradient                                                  0.0003876736
 OPT| Convergence limit for RMS gradient                            0.0003000000
 OPT| RMS gradient is converged                                               NO
 OPT| **************************************************************************
 OPT| Estimated peak process memory after this step [MiB]                   1796

 --------------------------
 OPTIMIZATION STEP:     77
 --------------------------

 Number of electrons:                                                        424
 Number of occupied orbitals:                                                212
 Number of molecular orbitals:                                               212

 Number of orbital functions:                                                326
 Number of independent orbital functions:                                    326

 Extrapolation method: ASPC


 SCF WAVEFUNCTION OPTIMIZATION

  ----------------------------------- OT ---------------------------------------
  Minimizer      : DIIS                : direct inversion
                                         in the iterative subspace
                                         using   7 DIIS vectors
                                         safer DIIS on
  Preconditioner : FULL_SINGLE_INVERSE : inversion of 
                                         H + eS - 2*(Sc)(c^T*H*c+const)(Sc)^T
  Precond_solver : DEFAULT
  stepsize       :    0.08000000                  energy_gap     :    0.08000000
  eps_taylor     :   0.10000E-15                  max_taylor     :             4
  ----------------------------------- OT ---------------------------------------

  Step     Update method      Time    Convergence         Total energy    Change
  ------------------------------------------------------------------------------
     1 OT DIIS     0.80E-01    4.9     0.00036148      -938.6839649398 -9.39E+02
     2 OT DIIS     0.80E-01    6.1     0.00024008      -938.6843712957 -4.06E-04
     3 OT DIIS     0.80E-01    6.1     0.00017428      -938.6844766939 -1.05E-04
     4 OT DIIS     0.80E-01    6.1     0.00010666      -938.6845529740 -7.63E-05
     5 OT DIIS     0.80E-01    6.1     0.00007327      -938.6845723082 -1.93E-05
     6 OT DIIS     0.80E-01    6.1     0.00003429      -938.6845812771 -8.97E-06
     7 OT DIIS     0.80E-01    6.1     0.00002855      -938.6845839946 -2.72E-06
     8 OT DIIS     0.80E-01    6.1     0.00001487      -938.6845858130 -1.82E-06
     9 OT DIIS     0.80E-01    6.1     0.00001415      -938.6845866635 -8.50E-07
    10 OT DIIS     0.80E-01    6.3     0.00001032      -938.6845871790 -5.16E-07
    11 OT DIIS     0.80E-01    6.6     0.00000852      -938.6845876663 -4.87E-07

  *** SCF run converged in    11 steps ***


  Electronic density on regular grids:       -423.9999941421        0.0000058579
  Core density on regular grids:              423.9999999739       -0.0000000261
  Total charge density on r-space grids:        0.0000058318
  Total charge density g-space grids:           0.0000058318

  Overlap energy of the core charge distribution:               0.00000006140005
  Self energy of the core charge distribution:              -2435.54055198066590
  Core Hamiltonian energy:                                    709.17986380850357
  Hartree energy:                                            1010.77133577204381
  Exchange-correlation energy:                               -223.09523532757470

  Total energy:                                              -938.68458766629328

 ENERGY| Total FORCE_EVAL ( QS ) energy [hartree]           -938.684588082771370

 OPT| **************************************************************************
 OPT| Step number                                                             77
 OPT| Optimization method                                                  LBFGS
 OPT| Total energy [hartree]                                     -938.6845880828
 OPT| Effective energy change [hartree]                            -0.0000624042
 OPT| Decrease in energy                                                     YES
 OPT| Used time [s]                                                       75.344
 OPT|
 OPT| Maximum step size                                             0.0112725394
 OPT| Convergence limit for maximum step size                       0.0030000000
 OPT| Maximum step size is converged                                          NO
 OPT|
 OPT| RMS step size                                                 0.0016352789
 OPT| Convergence limit for RMS step size                           0.0015000000
 OPT| RMS step size is converged                                              NO
 OPT|
 OPT| Maximum gradient                                              0.0019469980
 OPT| Convergence limit for maximum gradient                        0.0010000000
 OPT| Maximum gradient is converged                                           NO
 OPT|
 OPT| RMS gradient                                                  0.0003487771
 OPT| Convergence limit for RMS gradient                            0.0003000000
 OPT| RMS gradient is converged                                               NO
 OPT| **************************************************************************
 OPT| Estimated peak process memory after this step [MiB]                   1796

 --------------------------
 OPTIMIZATION STEP:     78
 --------------------------

 Number of electrons:                                                        424
 Number of occupied orbitals:                                                212
 Number of molecular orbitals:                                               212

 Number of orbital functions:                                                326
 Number of independent orbital functions:                                    326

 Extrapolation method: ASPC


 SCF WAVEFUNCTION OPTIMIZATION

  ----------------------------------- OT ---------------------------------------
  Minimizer      : DIIS                : direct inversion
                                         in the iterative subspace
                                         using   7 DIIS vectors
                                         safer DIIS on
  Preconditioner : FULL_SINGLE_INVERSE : inversion of 
                                         H + eS - 2*(Sc)(c^T*H*c+const)(Sc)^T
  Precond_solver : DEFAULT
  stepsize       :    0.08000000                  energy_gap     :    0.08000000
  eps_taylor     :   0.10000E-15                  max_taylor     :             4
  ----------------------------------- OT ---------------------------------------

  Step     Update method      Time    Convergence         Total energy    Change
  ------------------------------------------------------------------------------
     1 OT DIIS     0.80E-01    4.9     0.00020737      -938.6845169370 -9.39E+02
     2 OT DIIS     0.80E-01    6.1     0.00017915      -938.6846295434 -1.13E-04
     3 OT DIIS     0.80E-01    6.1     0.00011317      -938.6846721845 -4.26E-05
     4 OT DIIS     0.80E-01    6.1     0.00011065      -938.6846961689 -2.40E-05
     5 OT DIIS     0.80E-01    6.1     0.00003962      -938.6847127937 -1.66E-05
     6 OT DIIS     0.80E-01    6.1     0.00002970      -938.6847169073 -4.11E-06
     7 OT DIIS     0.80E-01    6.1     0.00001814      -938.6847186026 -1.70E-06
     8 OT DIIS     0.80E-01    6.1     0.00001266      -938.6847195408 -9.38E-07
     9 OT DIIS     0.80E-01    6.1     0.00001001      -938.6847200160 -4.75E-07
    10 OT DIIS     0.80E-01    6.1     0.00000785      -938.6847204028 -3.87E-07

  *** SCF run converged in    10 steps ***


  Electronic density on regular grids:       -423.9999940750        0.0000059250
  Core density on regular grids:              423.9999999739       -0.0000000261
  Total charge density on r-space grids:        0.0000058989
  Total charge density g-space grids:           0.0000058989

  Overlap energy of the core charge distribution:               0.00000006108113
  Self energy of the core charge distribution:              -2435.54055198066590
  Core Hamiltonian energy:                                    709.17486968746914
  Hartree energy:                                            1010.77537776487588
  Exchange-correlation energy:                               -223.09441593555053

  Total energy:                                              -938.68472040279005

 ENERGY| Total FORCE_EVAL ( QS ) energy [hartree]           -938.684720694777411

 OPT| **************************************************************************
 OPT| Step number                                                             78
 OPT| Optimization method                                                  LBFGS
 OPT| Total energy [hartree]                                     -938.6847206948
 OPT| Effective energy change [hartree]                            -0.0001326120
 OPT| Decrease in energy                                                     YES
 OPT| Used time [s]                                                       68.595
 OPT|
 OPT| Maximum step size                                             0.0275529318
 OPT| Convergence limit for maximum step size                       0.0030000000
 OPT| Maximum step size is converged                                          NO
 OPT|
 OPT| RMS step size                                                 0.0041190258
 OPT| Convergence limit for RMS step size                           0.0015000000
 OPT| RMS step size is converged                                              NO
 OPT|
 OPT| Maximum gradient                                              0.0028459693
 OPT| Convergence limit for maximum gradient                        0.0010000000
 OPT| Maximum gradient is converged                                           NO
 OPT|
 OPT| RMS gradient                                                  0.0004776877
 OPT| Convergence limit for RMS gradient                            0.0003000000
 OPT| RMS gradient is converged                                               NO
 OPT| **************************************************************************
 OPT| Estimated peak process memory after this step [MiB]                   1796

 --------------------------
 OPTIMIZATION STEP:     79
 --------------------------

 Number of electrons:                                                        424
 Number of occupied orbitals:                                                212
 Number of molecular orbitals:                                               212

 Number of orbital functions:                                                326
 Number of independent orbital functions:                                    326

 Extrapolation method: ASPC


 SCF WAVEFUNCTION OPTIMIZATION

  ----------------------------------- OT ---------------------------------------
  Minimizer      : DIIS                : direct inversion
                                         in the iterative subspace
                                         using   7 DIIS vectors
                                         safer DIIS on
  Preconditioner : FULL_SINGLE_INVERSE : inversion of 
                                         H + eS - 2*(Sc)(c^T*H*c+const)(Sc)^T
  Precond_solver : DEFAULT
  stepsize       :    0.08000000                  energy_gap     :    0.08000000
  eps_taylor     :   0.10000E-15                  max_taylor     :             4
  ----------------------------------- OT ---------------------------------------

  Step     Update method      Time    Convergence         Total energy    Change
  ------------------------------------------------------------------------------
     1 OT DIIS     0.80E-01    4.8     0.00012579      -938.6848363854 -9.39E+02
     2 OT DIIS     0.80E-01    6.1     0.00011483      -938.6848756046 -3.92E-05
     3 OT DIIS     0.80E-01    6.1     0.00006621      -938.6848923618 -1.68E-05
     4 OT DIIS     0.80E-01    6.1     0.00006237      -938.6849018364 -9.47E-06
     5 OT DIIS     0.80E-01    6.1     0.00002606      -938.6849071477 -5.31E-06
     6 OT DIIS     0.80E-01    6.1     0.00001588      -938.6849088343 -1.69E-06
     7 OT DIIS     0.80E-01    6.1     0.00001138      -938.6849093911 -5.57E-07
     8 OT DIIS     0.80E-01    6.1     0.00000815      -938.6849096963 -3.05E-07

  *** SCF run converged in     8 steps ***


  Electronic density on regular grids:       -423.9999939355        0.0000060645
  Core density on regular grids:              423.9999999738       -0.0000000262
  Total charge density on r-space grids:        0.0000060384
  Total charge density g-space grids:           0.0000060384

  Overlap energy of the core charge distribution:               0.00000006245047
  Self energy of the core charge distribution:              -2435.54055198066590
  Core Hamiltonian energy:                                    709.18274481905530
  Hartree energy:                                            1010.77068855945174
  Exchange-correlation energy:                               -223.09779115663102

  Total energy:                                              -938.68490969633956

 ENERGY| Total FORCE_EVAL ( QS ) energy [hartree]           -938.684909897648367

 OPT| **************************************************************************
 OPT| Step number                                                             79
 OPT| Optimization method                                                  LBFGS
 OPT| Total energy [hartree]                                     -938.6849098976
 OPT| Effective energy change [hartree]                            -0.0001892029
 OPT| Decrease in energy                                                     YES
 OPT| Used time [s]                                                       56.444
 OPT|
 OPT| Maximum step size                                             0.0473641800
 OPT| Convergence limit for maximum step size                       0.0030000000
 OPT| Maximum step size is converged                                          NO
 OPT|
 OPT| RMS step size                                                 0.0067823545
 OPT| Convergence limit for RMS step size                           0.0015000000
 OPT| RMS step size is converged                                              NO
 OPT|
 OPT| Maximum gradient                                              0.0041054262
 OPT| Convergence limit for maximum gradient                        0.0010000000
 OPT| Maximum gradient is converged                                           NO
 OPT|
 OPT| RMS gradient                                                  0.0007023512
 OPT| Convergence limit for RMS gradient                            0.0003000000
 OPT| RMS gradient is converged                                               NO
 OPT| **************************************************************************
 OPT| Estimated peak process memory after this step [MiB]                   1796

 --------------------------
 OPTIMIZATION STEP:     80
 --------------------------

 Number of electrons:                                                        424
 Number of occupied orbitals:                                                212
 Number of molecular orbitals:                                               212

 Number of orbital functions:                                                326
 Number of independent orbital functions:                                    326

 Extrapolation method: ASPC


 SCF WAVEFUNCTION OPTIMIZATION

  ----------------------------------- OT ---------------------------------------
  Minimizer      : DIIS                : direct inversion
                                         in the iterative subspace
                                         using   7 DIIS vectors
                                         safer DIIS on
  Preconditioner : FULL_SINGLE_INVERSE : inversion of 
                                         H + eS - 2*(Sc)(c^T*H*c+const)(Sc)^T
  Precond_solver : DEFAULT
  stepsize       :    0.08000000                  energy_gap     :    0.08000000
  eps_taylor     :   0.10000E-15                  max_taylor     :             4
  ----------------------------------- OT ---------------------------------------

  Step     Update method      Time    Convergence         Total energy    Change
  ------------------------------------------------------------------------------
     1 OT DIIS     0.80E-01    4.8     0.00010920      -938.6848738589 -9.39E+02
     2 OT DIIS     0.80E-01    6.1     0.00009288      -938.6849060361 -3.22E-05
     3 OT DIIS     0.80E-01    6.1     0.00007117      -938.6849155130 -9.48E-06
     4 OT DIIS     0.80E-01    6.1     0.00004807      -938.6849226795 -7.17E-06
     5 OT DIIS     0.80E-01    6.1     0.00001896      -938.6849265925 -3.91E-06
     6 OT DIIS     0.80E-01    6.1     0.00001126      -938.6849276647 -1.07E-06
     7 OT DIIS     0.80E-01    6.1     0.00000888      -938.6849279962 -3.32E-07

  *** SCF run converged in     7 steps ***


  Electronic density on regular grids:       -423.9999937642        0.0000062358
  Core density on regular grids:              423.9999999738       -0.0000000262
  Total charge density on r-space grids:        0.0000062096
  Total charge density g-space grids:           0.0000062096

  Overlap energy of the core charge distribution:               0.00000006060101
  Self energy of the core charge distribution:              -2435.54055198066590
  Core Hamiltonian energy:                                    709.19296782985339
  Hartree energy:                                            1010.76188724134113
  Exchange-correlation energy:                               -223.09923114733363

  Total energy:                                              -938.68492799620401

 ENERGY| Total FORCE_EVAL ( QS ) energy [hartree]           -938.684928212047907

 Number of electrons:                                                        424
 Number of occupied orbitals:                                                212
 Number of molecular orbitals:                                               212

 Number of orbital functions:                                                326
 Number of independent orbital functions:                                    326

 Extrapolation method: ASPC


 SCF WAVEFUNCTION OPTIMIZATION

  ----------------------------------- OT ---------------------------------------
  Minimizer      : DIIS                : direct inversion
                                         in the iterative subspace
                                         using   7 DIIS vectors
                                         safer DIIS on
  Preconditioner : FULL_SINGLE_INVERSE : inversion of 
                                         H + eS - 2*(Sc)(c^T*H*c+const)(Sc)^T
  Precond_solver : DEFAULT
  stepsize       :    0.08000000                  energy_gap     :    0.08000000
  eps_taylor     :   0.10000E-15                  max_taylor     :             4
  ----------------------------------- OT ---------------------------------------

  Step     Update method      Time    Convergence         Total energy    Change
  ------------------------------------------------------------------------------
     1 OT DIIS     0.80E-01    4.9     0.00042103      -938.6838573116 -9.39E+02
     2 OT DIIS     0.80E-01    6.1     0.00027327      -938.6845617275 -7.04E-04
     3 OT DIIS     0.80E-01    6.1     0.00032517      -938.6847681459 -2.06E-04
     4 OT DIIS     0.80E-01    6.1     0.00018327      -938.6849417754 -1.74E-04
     5 OT DIIS     0.80E-01    6.1     0.00008316      -938.6849972649 -5.55E-05
     6 OT DIIS     0.80E-01    6.1     0.00004788      -938.6850112754 -1.40E-05
     7 OT DIIS     0.80E-01    6.1     0.00003985      -938.6850152009 -3.93E-06
     8 OT DIIS     0.80E-01    6.1     0.00001785      -938.6850180913 -2.89E-06
     9 OT DIIS     0.80E-01    6.7     0.00001489      -938.6850190272 -9.36E-07
    10 OT DIIS     0.80E-01    6.1     0.00000944      -938.6850196328 -6.06E-07

  *** SCF run converged in    10 steps ***


  Electronic density on regular grids:       -423.9999938465        0.0000061535
  Core density on regular grids:              423.9999999738       -0.0000000262
  Total charge density on r-space grids:        0.0000061273
  Total charge density g-space grids:           0.0000061273

  Overlap energy of the core charge distribution:               0.00000006160340
  Self energy of the core charge distribution:              -2435.54055198066590
  Core Hamiltonian energy:                                    709.18695100188950
  Hartree energy:                                            1010.76705047591054
  Exchange-correlation energy:                               -223.09846919156925

  Total energy:                                              -938.68501963283177

 ENERGY| Total FORCE_EVAL ( QS ) energy [hartree]           -938.685019976564490

 OPT| **************************************************************************
 OPT| Step number                                                             80
 OPT| Optimization method                                                  LBFGS
 OPT| Total energy [hartree]                                     -938.6850199766
 OPT| Effective energy change [hartree]                            -0.0001100789
 OPT| Decrease in energy                                                     YES
 OPT| Used time [s]                                                      119.973
 OPT|
 OPT| Maximum step size                                             0.0251850002
 OPT| Convergence limit for maximum step size                       0.0030000000
 OPT| Maximum step size is converged                                          NO
 OPT|
 OPT| RMS step size                                                 0.0038947704
 OPT| Convergence limit for RMS step size                           0.0015000000
 OPT| RMS step size is converged                                              NO
 OPT|
 OPT| Maximum gradient                                              0.0040169295
 OPT| Convergence limit for maximum gradient                        0.0010000000
 OPT| Maximum gradient is converged                                           NO
 OPT|
 OPT| RMS gradient                                                  0.0006654773
 OPT| Convergence limit for RMS gradient                            0.0003000000
 OPT| RMS gradient is converged                                               NO
 OPT| **************************************************************************
 OPT| Estimated peak process memory after this step [MiB]                   1796

 --------------------------
 OPTIMIZATION STEP:     81
 --------------------------

 Number of electrons:                                                        424
 Number of occupied orbitals:                                                212
 Number of molecular orbitals:                                               212

 Number of orbital functions:                                                326
 Number of independent orbital functions:                                    326

 Extrapolation method: ASPC


 SCF WAVEFUNCTION OPTIMIZATION

  ----------------------------------- OT ---------------------------------------
  Minimizer      : DIIS                : direct inversion
                                         in the iterative subspace
                                         using   7 DIIS vectors
                                         safer DIIS on
  Preconditioner : FULL_SINGLE_INVERSE : inversion of 
                                         H + eS - 2*(Sc)(c^T*H*c+const)(Sc)^T
  Precond_solver : DEFAULT
  stepsize       :    0.08000000                  energy_gap     :    0.08000000
  eps_taylor     :   0.10000E-15                  max_taylor     :             4
  ----------------------------------- OT ---------------------------------------

  Step     Update method      Time    Convergence         Total energy    Change
  ------------------------------------------------------------------------------
     1 OT DIIS     0.80E-01    4.9     0.00061865      -938.6826374339 -9.39E+02
     2 OT DIIS     0.80E-01    6.1     0.00039132      -938.6841928599 -1.56E-03
     3 OT DIIS     0.80E-01    6.1     0.00048914      -938.6846824584 -4.90E-04
     4 OT DIIS     0.80E-01    6.1     0.00025592      -938.6850370283 -3.55E-04
     5 OT DIIS     0.80E-01    6.1     0.00011558      -938.6851495122 -1.12E-04
     6 OT DIIS     0.80E-01    6.1     0.00006797      -938.6851755029 -2.60E-05
     7 OT DIIS     0.80E-01    6.1     0.00005479      -938.6851829771 -7.47E-06
     8 OT DIIS     0.80E-01    6.1     0.00002145      -938.6851879912 -5.01E-06
     9 OT DIIS     0.80E-01    6.1     0.00001667      -938.6851892054 -1.21E-06
    10 OT DIIS     0.80E-01    6.1     0.00000771      -938.6851897780 -5.73E-07

  *** SCF run converged in    10 steps ***


  Electronic density on regular grids:       -423.9999937688        0.0000062312
  Core density on regular grids:              423.9999999738       -0.0000000262
  Total charge density on r-space grids:        0.0000062050
  Total charge density g-space grids:           0.0000062050

  Overlap energy of the core charge distribution:               0.00000006215624
  Self energy of the core charge distribution:              -2435.54055198066590
  Core Hamiltonian energy:                                    709.19879949902190
  Hartree energy:                                            1010.75803468145978
  Exchange-correlation energy:                               -223.10147203998625

  Total energy:                                              -938.68518977801432

 ENERGY| Total FORCE_EVAL ( QS ) energy [hartree]           -938.685189986557816

 OPT| **************************************************************************
 OPT| Step number                                                             81
 OPT| Optimization method                                                  LBFGS
 OPT| Total energy [hartree]                                     -938.6851899866
 OPT| Effective energy change [hartree]                            -0.0001700100
 OPT| Decrease in energy                                                     YES
 OPT| Used time [s]                                                       68.804
 OPT|
 OPT| Maximum step size                                             0.0248730345
 OPT| Convergence limit for maximum step size                       0.0030000000
 OPT| Maximum step size is converged                                          NO
 OPT|
 OPT| RMS step size                                                 0.0031959514
 OPT| Convergence limit for RMS step size                           0.0015000000
 OPT| RMS step size is converged                                              NO
 OPT|
 OPT| Maximum gradient                                              0.0027736326
 OPT| Convergence limit for maximum gradient                        0.0010000000
 OPT| Maximum gradient is converged                                           NO
 OPT|
 OPT| RMS gradient                                                  0.0004261685
 OPT| Convergence limit for RMS gradient                            0.0003000000
 OPT| RMS gradient is converged                                               NO
 OPT| **************************************************************************
 OPT| Estimated peak process memory after this step [MiB]                   1796

 --------------------------
 OPTIMIZATION STEP:     82
 --------------------------

 Number of electrons:                                                        424
 Number of occupied orbitals:                                                212
 Number of molecular orbitals:                                               212

 Number of orbital functions:                                                326
 Number of independent orbital functions:                                    326

 Extrapolation method: ASPC


 SCF WAVEFUNCTION OPTIMIZATION

  ----------------------------------- OT ---------------------------------------
  Minimizer      : DIIS                : direct inversion
                                         in the iterative subspace
                                         using   7 DIIS vectors
                                         safer DIIS on
  Preconditioner : FULL_SINGLE_INVERSE : inversion of 
                                         H + eS - 2*(Sc)(c^T*H*c+const)(Sc)^T
  Precond_solver : DEFAULT
  stepsize       :    0.08000000                  energy_gap     :    0.08000000
  eps_taylor     :   0.10000E-15                  max_taylor     :             4
  ----------------------------------- OT ---------------------------------------

  Step     Update method      Time    Convergence         Total energy    Change
  ------------------------------------------------------------------------------
     1 OT DIIS     0.80E-01    4.9     0.00050676      -938.6835838587 -9.39E+02
     2 OT DIIS     0.80E-01    6.1     0.00031170      -938.6846339116 -1.05E-03
     3 OT DIIS     0.80E-01    6.1     0.00032294      -938.6850165970 -3.83E-04
     4 OT DIIS     0.80E-01    6.1     0.00021341      -938.6852069071 -1.90E-04
     5 OT DIIS     0.80E-01    6.1     0.00010052      -938.6852698093 -6.29E-05
     6 OT DIIS     0.80E-01    6.1     0.00004863      -938.6852873815 -1.76E-05
     7 OT DIIS     0.80E-01    6.1     0.00004286      -938.6852919393 -4.56E-06
     8 OT DIIS     0.80E-01    6.1     0.00001817      -938.6852947286 -2.79E-06
     9 OT DIIS     0.80E-01    6.1     0.00001436      -938.6852954499 -7.21E-07
    10 OT DIIS     0.80E-01    6.1     0.00000684      -938.6852958008 -3.51E-07

  *** SCF run converged in    10 steps ***


  Electronic density on regular grids:       -423.9999937896        0.0000062104
  Core density on regular grids:              423.9999999737       -0.0000000263
  Total charge density on r-space grids:        0.0000061841
  Total charge density g-space grids:           0.0000061841

  Overlap energy of the core charge distribution:               0.00000006151299
  Self energy of the core charge distribution:              -2435.54055198066590
  Core Hamiltonian energy:                                    709.20287594215620
  Hartree energy:                                            1010.75385663296834
  Exchange-correlation energy:                               -223.10147645676375

  Total energy:                                              -938.68529580079235

 ENERGY| Total FORCE_EVAL ( QS ) energy [hartree]           -938.685295913774553

 OPT| **************************************************************************
 OPT| Step number                                                             82
 OPT| Optimization method                                                  LBFGS
 OPT| Total energy [hartree]                                     -938.6852959138
 OPT| Effective energy change [hartree]                            -0.0001059272
 OPT| Decrease in energy                                                     YES
 OPT| Used time [s]                                                       68.543
 OPT|
 OPT| Maximum step size                                             0.0186862532
 OPT| Convergence limit for maximum step size                       0.0030000000
 OPT| Maximum step size is converged                                          NO
 OPT|
 OPT| RMS step size                                                 0.0028372024
 OPT| Convergence limit for RMS step size                           0.0015000000
 OPT| RMS step size is converged                                              NO
 OPT|
 OPT| Maximum gradient                                              0.0025576530
 OPT| Convergence limit for maximum gradient                        0.0010000000
 OPT| Maximum gradient is converged                                           NO
 OPT|
 OPT| RMS gradient                                                  0.0004140108
 OPT| Convergence limit for RMS gradient                            0.0003000000
 OPT| RMS gradient is converged                                               NO
 OPT| **************************************************************************
 OPT| Estimated peak process memory after this step [MiB]                   1796

 --------------------------
 OPTIMIZATION STEP:     83
 --------------------------

 Number of electrons:                                                        424
 Number of occupied orbitals:                                                212
 Number of molecular orbitals:                                               212

 Number of orbital functions:                                                326
 Number of independent orbital functions:                                    326

 Extrapolation method: ASPC


 SCF WAVEFUNCTION OPTIMIZATION

  ----------------------------------- OT ---------------------------------------
  Minimizer      : DIIS                : direct inversion
                                         in the iterative subspace
                                         using   7 DIIS vectors
                                         safer DIIS on
  Preconditioner : FULL_SINGLE_INVERSE : inversion of 
                                         H + eS - 2*(Sc)(c^T*H*c+const)(Sc)^T
  Precond_solver : DEFAULT
  stepsize       :    0.08000000                  energy_gap     :    0.08000000
  eps_taylor     :   0.10000E-15                  max_taylor     :             4
  ----------------------------------- OT ---------------------------------------

  Step     Update method      Time    Convergence         Total energy    Change
  ------------------------------------------------------------------------------
     1 OT DIIS     0.80E-01    4.8     0.00031712      -938.6846644837 -9.39E+02
     2 OT DIIS     0.80E-01    6.1     0.00019615      -938.6850890612 -4.25E-04
     3 OT DIIS     0.80E-01    6.1     0.00019236      -938.6852677954 -1.79E-04
     4 OT DIIS     0.80E-01    6.1     0.00010020      -938.6853417920 -7.40E-05
     5 OT DIIS     0.80E-01    6.1     0.00007287      -938.6853548541 -1.31E-05
     6 OT DIIS     0.80E-01    6.1     0.00002742      -938.6853621438 -7.29E-06
     7 OT DIIS     0.80E-01    6.1     0.00001841      -938.6853639931 -1.85E-06
     8 OT DIIS     0.80E-01    6.1     0.00001065      -938.6853649258 -9.33E-07
     9 OT DIIS     0.80E-01    6.1     0.00000802      -938.6853652575 -3.32E-07

  *** SCF run converged in     9 steps ***


  Electronic density on regular grids:       -423.9999937756        0.0000062244
  Core density on regular grids:              423.9999999737       -0.0000000263
  Total charge density on r-space grids:        0.0000061981
  Total charge density g-space grids:           0.0000061981

  Overlap energy of the core charge distribution:               0.00000006182561
  Self energy of the core charge distribution:              -2435.54055198066590
  Core Hamiltonian energy:                                    709.20156488492660
  Hartree energy:                                            1010.75532395610503
  Exchange-correlation energy:                               -223.10170217969377

  Total energy:                                              -938.68536525750255

 ENERGY| Total FORCE_EVAL ( QS ) energy [hartree]           -938.685365440204350

 OPT| **************************************************************************
 OPT| Step number                                                             83
 OPT| Optimization method                                                  LBFGS
 OPT| Total energy [hartree]                                     -938.6853654402
 OPT| Effective energy change [hartree]                            -0.0000695264
 OPT| Decrease in energy                                                     YES
 OPT| Used time [s]                                                       62.491
 OPT|
 OPT| Maximum step size                                             0.0133498843
 OPT| Convergence limit for maximum step size                       0.0030000000
 OPT| Maximum step size is converged                                          NO
 OPT|
 OPT| RMS step size                                                 0.0015299735
 OPT| Convergence limit for RMS step size                           0.0015000000
 OPT| RMS step size is converged                                              NO
 OPT|
 OPT| Maximum gradient                                              0.0024767659
 OPT| Convergence limit for maximum gradient                        0.0010000000
 OPT| Maximum gradient is converged                                           NO
 OPT|
 OPT| RMS gradient                                                  0.0003679118
 OPT| Convergence limit for RMS gradient                            0.0003000000
 OPT| RMS gradient is converged                                               NO
 OPT| **************************************************************************
 OPT| Estimated peak process memory after this step [MiB]                   1796

 --------------------------
 OPTIMIZATION STEP:     84
 --------------------------

 Number of electrons:                                                        424
 Number of occupied orbitals:                                                212
 Number of molecular orbitals:                                               212

 Number of orbital functions:                                                326
 Number of independent orbital functions:                                    326

 Extrapolation method: ASPC


 SCF WAVEFUNCTION OPTIMIZATION

  ----------------------------------- OT ---------------------------------------
  Minimizer      : DIIS                : direct inversion
                                         in the iterative subspace
                                         using   7 DIIS vectors
                                         safer DIIS on
  Preconditioner : FULL_SINGLE_INVERSE : inversion of 
                                         H + eS - 2*(Sc)(c^T*H*c+const)(Sc)^T
  Precond_solver : DEFAULT
  stepsize       :    0.08000000                  energy_gap     :    0.08000000
  eps_taylor     :   0.10000E-15                  max_taylor     :             4
  ----------------------------------- OT ---------------------------------------

  Step     Update method      Time    Convergence         Total energy    Change
  ------------------------------------------------------------------------------
     1 OT DIIS     0.80E-01    4.8     0.00015167      -938.6852743075 -9.39E+02
     2 OT DIIS     0.80E-01    6.1     0.00010009      -938.6853636275 -8.93E-05
     3 OT DIIS     0.80E-01    6.1     0.00012154      -938.6853866015 -2.30E-05
     4 OT DIIS     0.80E-01    6.1     0.00006356      -938.6854102290 -2.36E-05
     5 OT DIIS     0.80E-01    6.1     0.00003703      -938.6854167387 -6.51E-06
     6 OT DIIS     0.80E-01    6.1     0.00001637      -938.6854191036 -2.36E-06
     7 OT DIIS     0.80E-01    6.1     0.00001371      -938.6854196462 -5.43E-07
     8 OT DIIS     0.80E-01    6.1     0.00000709      -938.6854200226 -3.76E-07

  *** SCF run converged in     8 steps ***


  Electronic density on regular grids:       -423.9999937491        0.0000062509
  Core density on regular grids:              423.9999999738       -0.0000000262
  Total charge density on r-space grids:        0.0000062246
  Total charge density g-space grids:           0.0000062246

  Overlap energy of the core charge distribution:               0.00000006203711
  Self energy of the core charge distribution:              -2435.54055198066590
  Core Hamiltonian energy:                                    709.19983341321586
  Hartree energy:                                            1010.75703447293347
  Exchange-correlation energy:                               -223.10173599015548

  Total energy:                                              -938.68542002263496

 ENERGY| Total FORCE_EVAL ( QS ) energy [hartree]           -938.685420213662269

 OPT| **************************************************************************
 OPT| Step number                                                             84
 OPT| Optimization method                                                  LBFGS
 OPT| Total energy [hartree]                                     -938.6854202137
 OPT| Effective energy change [hartree]                            -0.0000547735
 OPT| Decrease in energy                                                     YES
 OPT| Used time [s]                                                       56.392
 OPT|
 OPT| Maximum step size                                             0.0181697743
 OPT| Convergence limit for maximum step size                       0.0030000000
 OPT| Maximum step size is converged                                          NO
 OPT|
 OPT| RMS step size                                                 0.0021124427
 OPT| Convergence limit for RMS step size                           0.0015000000
 OPT| RMS step size is converged                                              NO
 OPT|
 OPT| Maximum gradient                                              0.0015185994
 OPT| Convergence limit for maximum gradient                        0.0010000000
 OPT| Maximum gradient is converged                                           NO
 OPT|
 OPT| RMS gradient                                                  0.0002762070
 OPT| Convergence limit for RMS gradient                            0.0003000000
 OPT| RMS gradient is converged                                              YES
 OPT| **************************************************************************
 OPT| Estimated peak process memory after this step [MiB]                   1796

 --------------------------
 OPTIMIZATION STEP:     85
 --------------------------

 Number of electrons:                                                        424
 Number of occupied orbitals:                                                212
 Number of molecular orbitals:                                               212

 Number of orbital functions:                                                326
 Number of independent orbital functions:                                    326

 Extrapolation method: ASPC


 SCF WAVEFUNCTION OPTIMIZATION

  ----------------------------------- OT ---------------------------------------
  Minimizer      : DIIS                : direct inversion
                                         in the iterative subspace
                                         using   7 DIIS vectors
                                         safer DIIS on
  Preconditioner : FULL_SINGLE_INVERSE : inversion of 
                                         H + eS - 2*(Sc)(c^T*H*c+const)(Sc)^T
  Precond_solver : DEFAULT
  stepsize       :    0.08000000                  energy_gap     :    0.08000000
  eps_taylor     :   0.10000E-15                  max_taylor     :             4
  ----------------------------------- OT ---------------------------------------

  Step     Update method      Time    Convergence         Total energy    Change
  ------------------------------------------------------------------------------
     1 OT DIIS     0.80E-01    4.8     0.00007445      -938.6854381766 -9.39E+02
     2 OT DIIS     0.80E-01    6.1     0.00007536      -938.6854540799 -1.59E-05
     3 OT DIIS     0.80E-01    6.1     0.00005713      -938.6854589388 -4.86E-06
     4 OT DIIS     0.80E-01    6.1     0.00002448      -938.6854649322 -5.99E-06
     5 OT DIIS     0.80E-01    6.1     0.00001618      -938.6854664864 -1.55E-06
     6 OT DIIS     0.80E-01    6.1     0.00001155      -938.6854669879 -5.01E-07
     7 OT DIIS     0.80E-01    6.1     0.00000694      -938.6854672020 -2.14E-07

  *** SCF run converged in     7 steps ***


  Electronic density on regular grids:       -423.9999937749        0.0000062251
  Core density on regular grids:              423.9999999738       -0.0000000262
  Total charge density on r-space grids:        0.0000061989
  Total charge density g-space grids:           0.0000061989

  Overlap energy of the core charge distribution:               0.00000006124945
  Self energy of the core charge distribution:              -2435.54055198066590
  Core Hamiltonian energy:                                    709.19012704893430
  Hartree energy:                                            1010.76404230532069
  Exchange-correlation energy:                               -223.09908463685431

  Total energy:                                              -938.68546720201573

 ENERGY| Total FORCE_EVAL ( QS ) energy [hartree]           -938.685467339126717

 OPT| **************************************************************************
 OPT| Step number                                                             85
 OPT| Optimization method                                                  LBFGS
 OPT| Total energy [hartree]                                     -938.6854673391
 OPT| Effective energy change [hartree]                            -0.0000471255
 OPT| Decrease in energy                                                     YES
 OPT| Used time [s]                                                       50.286
 OPT|
 OPT| Maximum step size                                             0.0211858854
 OPT| Convergence limit for maximum step size                       0.0030000000
 OPT| Maximum step size is converged                                          NO
 OPT|
 OPT| RMS step size                                                 0.0020969382
 OPT| Convergence limit for RMS step size                           0.0015000000
 OPT| RMS step size is converged                                              NO
 OPT|
 OPT| Maximum gradient                                              0.0014576184
 OPT| Convergence limit for maximum gradient                        0.0010000000
 OPT| Maximum gradient is converged                                           NO
 OPT|
 OPT| RMS gradient                                                  0.0002602602
 OPT| Convergence limit for RMS gradient                            0.0003000000
 OPT| RMS gradient is converged                                              YES
 OPT| **************************************************************************
 OPT| Estimated peak process memory after this step [MiB]                   1796

 --------------------------
 OPTIMIZATION STEP:     86
 --------------------------

 Number of electrons:                                                        424
 Number of occupied orbitals:                                                212
 Number of molecular orbitals:                                               212

 Number of orbital functions:                                                326
 Number of independent orbital functions:                                    326

 Extrapolation method: ASPC


 SCF WAVEFUNCTION OPTIMIZATION

  ----------------------------------- OT ---------------------------------------
  Minimizer      : DIIS                : direct inversion
                                         in the iterative subspace
                                         using   7 DIIS vectors
                                         safer DIIS on
  Preconditioner : FULL_SINGLE_INVERSE : inversion of 
                                         H + eS - 2*(Sc)(c^T*H*c+const)(Sc)^T
  Precond_solver : DEFAULT
  stepsize       :    0.08000000                  energy_gap     :    0.08000000
  eps_taylor     :   0.10000E-15                  max_taylor     :             4
  ----------------------------------- OT ---------------------------------------

  Step     Update method      Time    Convergence         Total energy    Change
  ------------------------------------------------------------------------------
     1 OT DIIS     0.80E-01    4.8     0.00008872      -938.6854649133 -9.39E+02
     2 OT DIIS     0.80E-01    6.1     0.00008338      -938.6854865970 -2.17E-05
     3 OT DIIS     0.80E-01    6.1     0.00006788      -938.6854925182 -5.92E-06
     4 OT DIIS     0.80E-01    6.1     0.00003204      -938.6854992532 -6.73E-06
     5 OT DIIS     0.80E-01    6.1     0.00001980      -938.6855015637 -2.31E-06
     6 OT DIIS     0.80E-01    6.1     0.00001307      -938.6855023772 -8.13E-07
     7 OT DIIS     0.80E-01    6.1     0.00000864      -938.6855026678 -2.91E-07

  *** SCF run converged in     7 steps ***


  Electronic density on regular grids:       -423.9999938271        0.0000061729
  Core density on regular grids:              423.9999999739       -0.0000000261
  Total charge density on r-space grids:        0.0000061467
  Total charge density g-space grids:           0.0000061467

  Overlap energy of the core charge distribution:               0.00000006209170
  Self energy of the core charge distribution:              -2435.54055198066590
  Core Hamiltonian energy:                                    709.18550038260048
  Hartree energy:                                            1010.76800864899974
  Exchange-correlation energy:                               -223.09845978080841

  Total energy:                                              -938.68550266778254

 ENERGY| Total FORCE_EVAL ( QS ) energy [hartree]           -938.685502897677338

 OPT| **************************************************************************
 OPT| Step number                                                             86
 OPT| Optimization method                                                  LBFGS
 OPT| Total energy [hartree]                                     -938.6855028977
 OPT| Effective energy change [hartree]                            -0.0000355586
 OPT| Decrease in energy                                                     YES
 OPT| Used time [s]                                                       50.296
 OPT|
 OPT| Maximum step size                                             0.0228731208
 OPT| Convergence limit for maximum step size                       0.0030000000
 OPT| Maximum step size is converged                                          NO
 OPT|
 OPT| RMS step size                                                 0.0022887393
 OPT| Convergence limit for RMS step size                           0.0015000000
 OPT| RMS step size is converged                                              NO
 OPT|
 OPT| Maximum gradient                                              0.0023100413
 OPT| Convergence limit for maximum gradient                        0.0010000000
 OPT| Maximum gradient is converged                                           NO
 OPT|
 OPT| RMS gradient                                                  0.0003651960
 OPT| Convergence limit for RMS gradient                            0.0003000000
 OPT| RMS gradient is converged                                               NO
 OPT| **************************************************************************
 OPT| Estimated peak process memory after this step [MiB]                   1796

 --------------------------
 OPTIMIZATION STEP:     87
 --------------------------

 Number of electrons:                                                        424
 Number of occupied orbitals:                                                212
 Number of molecular orbitals:                                               212

 Number of orbital functions:                                                326
 Number of independent orbital functions:                                    326

 Extrapolation method: ASPC


 SCF WAVEFUNCTION OPTIMIZATION

  ----------------------------------- OT ---------------------------------------
  Minimizer      : DIIS                : direct inversion
                                         in the iterative subspace
                                         using   7 DIIS vectors
                                         safer DIIS on
  Preconditioner : FULL_SINGLE_INVERSE : inversion of 
                                         H + eS - 2*(Sc)(c^T*H*c+const)(Sc)^T
  Precond_solver : DEFAULT
  stepsize       :    0.08000000                  energy_gap     :    0.08000000
  eps_taylor     :   0.10000E-15                  max_taylor     :             4
  ----------------------------------- OT ---------------------------------------

  Step     Update method      Time    Convergence         Total energy    Change
  ------------------------------------------------------------------------------
     1 OT DIIS     0.80E-01    4.8     0.00010341      -938.6854787002 -9.39E+02
     2 OT DIIS     0.80E-01    6.1     0.00007424      -938.6855136580 -3.50E-05
     3 OT DIIS     0.80E-01    6.1     0.00007011      -938.6855216121 -7.95E-06
     4 OT DIIS     0.80E-01    6.1     0.00004599      -938.6855294802 -7.87E-06
     5 OT DIIS     0.80E-01    6.1     0.00002535      -938.6855324148 -2.93E-06
     6 OT DIIS     0.80E-01    6.1     0.00001248      -938.6855336254 -1.21E-06
     7 OT DIIS     0.80E-01    6.1     0.00000921      -938.6855339809 -3.55E-07

  *** SCF run converged in     7 steps ***


  Electronic density on regular grids:       -423.9999938526        0.0000061474
  Core density on regular grids:              423.9999999739       -0.0000000261
  Total charge density on r-space grids:        0.0000061213
  Total charge density g-space grids:           0.0000061213

  Overlap energy of the core charge distribution:               0.00000006169200
  Self energy of the core charge distribution:              -2435.54055198066590
  Core Hamiltonian energy:                                    709.18254737084192
  Hartree energy:                                            1010.76984312370394
  Exchange-correlation energy:                               -223.09737255642389

  Total energy:                                              -938.68553398085214

 ENERGY| Total FORCE_EVAL ( QS ) energy [hartree]           -938.685534263320847

 OPT| **************************************************************************
 OPT| Step number                                                             87
 OPT| Optimization method                                                  LBFGS
 OPT| Total energy [hartree]                                     -938.6855342633
 OPT| Effective energy change [hartree]                            -0.0000313656
 OPT| Decrease in energy                                                     YES
 OPT| Used time [s]                                                       50.301
 OPT|
 OPT| Maximum step size                                             0.0068585274
 OPT| Convergence limit for maximum step size                       0.0030000000
 OPT| Maximum step size is converged                                          NO
 OPT|
 OPT| RMS step size                                                 0.0007755604
 OPT| Convergence limit for RMS step size                           0.0015000000
 OPT| RMS step size is converged                                             YES
 OPT|
 OPT| Maximum gradient                                              0.0017267537
 OPT| Convergence limit for maximum gradient                        0.0010000000
 OPT| Maximum gradient is converged                                           NO
 OPT|
 OPT| RMS gradient                                                  0.0002135360
 OPT| Convergence limit for RMS gradient                            0.0003000000
 OPT| RMS gradient is converged                                              YES
 OPT| **************************************************************************
 OPT| Estimated peak process memory after this step [MiB]                   1796

 --------------------------
 OPTIMIZATION STEP:     88
 --------------------------

 Number of electrons:                                                        424
 Number of occupied orbitals:                                                212
 Number of molecular orbitals:                                               212

 Number of orbital functions:                                                326
 Number of independent orbital functions:                                    326

 Extrapolation method: ASPC


 SCF WAVEFUNCTION OPTIMIZATION

  ----------------------------------- OT ---------------------------------------
  Minimizer      : DIIS                : direct inversion
                                         in the iterative subspace
                                         using   7 DIIS vectors
                                         safer DIIS on
  Preconditioner : FULL_SINGLE_INVERSE : inversion of 
                                         H + eS - 2*(Sc)(c^T*H*c+const)(Sc)^T
  Precond_solver : DEFAULT
  stepsize       :    0.08000000                  energy_gap     :    0.08000000
  eps_taylor     :   0.10000E-15                  max_taylor     :             4
  ----------------------------------- OT ---------------------------------------

  Step     Update method      Time    Convergence         Total energy    Change
  ------------------------------------------------------------------------------
     1 OT DIIS     0.80E-01    4.8     0.00010159      -938.6855044467 -9.39E+02
     2 OT DIIS     0.80E-01    6.1     0.00007891      -938.6855410647 -3.66E-05
     3 OT DIIS     0.80E-01    6.1     0.00008102      -938.6855497683 -8.70E-06
     4 OT DIIS     0.80E-01    6.1     0.00004987      -938.6855609683 -1.12E-05
     5 OT DIIS     0.80E-01    6.1     0.00002199      -938.6855647342 -3.77E-06
     6 OT DIIS     0.80E-01    6.1     0.00001260      -938.6855657521 -1.02E-06
     7 OT DIIS     0.80E-01    6.1     0.00000908      -938.6855660378 -2.86E-07

  *** SCF run converged in     7 steps ***


  Electronic density on regular grids:       -423.9999939032        0.0000060968
  Core density on regular grids:              423.9999999739       -0.0000000261
  Total charge density on r-space grids:        0.0000060707
  Total charge density g-space grids:           0.0000060707

  Overlap energy of the core charge distribution:               0.00000006114341
  Self energy of the core charge distribution:              -2435.54055198066590
  Core Hamiltonian energy:                                    709.17761146608245
  Hartree energy:                                            1010.77304238402439
  Exchange-correlation energy:                               -223.09566796837083

  Total energy:                                              -938.68556603778643

 ENERGY| Total FORCE_EVAL ( QS ) energy [hartree]           -938.685566246118924

 OPT| **************************************************************************
 OPT| Step number                                                             88
 OPT| Optimization method                                                  LBFGS
 OPT| Total energy [hartree]                                     -938.6855662461
 OPT| Effective energy change [hartree]                            -0.0000319828
 OPT| Decrease in energy                                                     YES
 OPT| Used time [s]                                                       50.298
 OPT|
 OPT| Maximum step size                                             0.0188279109
 OPT| Convergence limit for maximum step size                       0.0030000000
 OPT| Maximum step size is converged                                          NO
 OPT|
 OPT| RMS step size                                                 0.0018900413
 OPT| Convergence limit for RMS step size                           0.0015000000
 OPT| RMS step size is converged                                              NO
 OPT|
 OPT| Maximum gradient                                              0.0012494916
 OPT| Convergence limit for maximum gradient                        0.0010000000
 OPT| Maximum gradient is converged                                           NO
 OPT|
 OPT| RMS gradient                                                  0.0001971897
 OPT| Convergence limit for RMS gradient                            0.0003000000
 OPT| RMS gradient is converged                                              YES
 OPT| **************************************************************************
 OPT| Estimated peak process memory after this step [MiB]                   1796

 --------------------------
 OPTIMIZATION STEP:     89
 --------------------------

 Number of electrons:                                                        424
 Number of occupied orbitals:                                                212
 Number of molecular orbitals:                                               212

 Number of orbital functions:                                                326
 Number of independent orbital functions:                                    326

 Extrapolation method: ASPC


 SCF WAVEFUNCTION OPTIMIZATION

  ----------------------------------- OT ---------------------------------------
  Minimizer      : DIIS                : direct inversion
                                         in the iterative subspace
                                         using   7 DIIS vectors
                                         safer DIIS on
  Preconditioner : FULL_SINGLE_INVERSE : inversion of 
                                         H + eS - 2*(Sc)(c^T*H*c+const)(Sc)^T
  Precond_solver : DEFAULT
  stepsize       :    0.08000000                  energy_gap     :    0.08000000
  eps_taylor     :   0.10000E-15                  max_taylor     :             4
  ----------------------------------- OT ---------------------------------------

  Step     Update method      Time    Convergence         Total energy    Change
  ------------------------------------------------------------------------------
     1 OT DIIS     0.80E-01    4.9     0.00008816      -938.6855393017 -9.39E+02
     2 OT DIIS     0.80E-01    6.1     0.00007064      -938.6855666332 -2.73E-05
     3 OT DIIS     0.80E-01    6.1     0.00007869      -938.6855722023 -5.57E-06
     4 OT DIIS     0.80E-01    6.0     0.00003696      -938.6855815921 -9.39E-06
     5 OT DIIS     0.80E-01    6.1     0.00002160      -938.6855842498 -2.66E-06
     6 OT DIIS     0.80E-01    6.1     0.00000907      -938.6855851117 -8.62E-07

  *** SCF run converged in     6 steps ***


  Electronic density on regular grids:       -423.9999939258        0.0000060742
  Core density on regular grids:              423.9999999739       -0.0000000261
  Total charge density on r-space grids:        0.0000060481
  Total charge density g-space grids:           0.0000060481

  Overlap energy of the core charge distribution:               0.00000006144425
  Self energy of the core charge distribution:              -2435.54055198066590
  Core Hamiltonian energy:                                    709.17771409092381
  Hartree energy:                                            1010.77320266483252
  Exchange-correlation energy:                               -223.09594994827955

  Total energy:                                              -938.68558511174490

 ENERGY| Total FORCE_EVAL ( QS ) energy [hartree]           -938.685585335285396

 OPT| **************************************************************************
 OPT| Step number                                                             89
 OPT| Optimization method                                                  LBFGS
 OPT| Total energy [hartree]                                     -938.6855853353
 OPT| Effective energy change [hartree]                            -0.0000190892
 OPT| Decrease in energy                                                     YES
 OPT| Used time [s]                                                       44.212
 OPT|
 OPT| Maximum step size                                             0.0096396336
 OPT| Convergence limit for maximum step size                       0.0030000000
 OPT| Maximum step size is converged                                          NO
 OPT|
 OPT| RMS step size                                                 0.0011053287
 OPT| Convergence limit for RMS step size                           0.0015000000
 OPT| RMS step size is converged                                             YES
 OPT|
 OPT| Maximum gradient                                              0.0009985965
 OPT| Convergence limit for maximum gradient                        0.0010000000
 OPT| Maximum gradient is converged                                          YES
 OPT|
 OPT| RMS gradient                                                  0.0002033778
 OPT| Convergence limit for RMS gradient                            0.0003000000
 OPT| RMS gradient is converged                                              YES
 OPT| **************************************************************************
 OPT| Estimated peak process memory after this step [MiB]                   1796

 --------------------------
 OPTIMIZATION STEP:     90
 --------------------------

 Number of electrons:                                                        424
 Number of occupied orbitals:                                                212
 Number of molecular orbitals:                                               212

 Number of orbital functions:                                                326
 Number of independent orbital functions:                                    326

 Extrapolation method: ASPC


 SCF WAVEFUNCTION OPTIMIZATION

  ----------------------------------- OT ---------------------------------------
  Minimizer      : DIIS                : direct inversion
                                         in the iterative subspace
                                         using   7 DIIS vectors
                                         safer DIIS on
  Preconditioner : FULL_SINGLE_INVERSE : inversion of 
                                         H + eS - 2*(Sc)(c^T*H*c+const)(Sc)^T
  Precond_solver : DEFAULT
  stepsize       :    0.08000000                  energy_gap     :    0.08000000
  eps_taylor     :   0.10000E-15                  max_taylor     :             4
  ----------------------------------- OT ---------------------------------------

  Step     Update method      Time    Convergence         Total energy    Change
  ------------------------------------------------------------------------------
     1 OT DIIS     0.80E-01    4.8     0.00008107      -938.6855679080 -9.39E+02
     2 OT DIIS     0.80E-01    6.1     0.00006665      -938.6855909829 -2.31E-05
     3 OT DIIS     0.80E-01    6.1     0.00006906      -938.6855958604 -4.88E-06
     4 OT DIIS     0.80E-01    6.1     0.00003210      -938.6856040054 -8.14E-06
     5 OT DIIS     0.80E-01    6.1     0.00002167      -938.6856055192 -1.51E-06
     6 OT DIIS     0.80E-01    6.1     0.00000823      -938.6856062447 -7.25E-07

  *** SCF run converged in     6 steps ***


  Electronic density on regular grids:       -423.9999939594        0.0000060406
  Core density on regular grids:              423.9999999739       -0.0000000261
  Total charge density on r-space grids:        0.0000060145
  Total charge density g-space grids:           0.0000060145

  Overlap energy of the core charge distribution:               0.00000006133829
  Self energy of the core charge distribution:              -2435.54055198066590
  Core Hamiltonian energy:                                    709.17855108865820
  Hartree energy:                                            1010.77253594010779
  Exchange-correlation energy:                               -223.09614135415819

  Total energy:                                              -938.68560624472002

 ENERGY| Total FORCE_EVAL ( QS ) energy [hartree]           -938.685606413710502

 OPT| **************************************************************************
 OPT| Step number                                                             90
 OPT| Optimization method                                                  LBFGS
 OPT| Total energy [hartree]                                     -938.6856064137
 OPT| Effective energy change [hartree]                            -0.0000210784
 OPT| Decrease in energy                                                     YES
 OPT| Used time [s]                                                       44.234
 OPT|
 OPT| Maximum step size                                             0.0204123100
 OPT| Convergence limit for maximum step size                       0.0030000000
 OPT| Maximum step size is converged                                          NO
 OPT|
 OPT| RMS step size                                                 0.0022640895
 OPT| Convergence limit for RMS step size                           0.0015000000
 OPT| RMS step size is converged                                              NO
 OPT|
 OPT| Maximum gradient                                              0.0010061049
 OPT| Convergence limit for maximum gradient                        0.0010000000
 OPT| Maximum gradient is converged                                           NO
 OPT|
 OPT| RMS gradient                                                  0.0001650569
 OPT| Convergence limit for RMS gradient                            0.0003000000
 OPT| RMS gradient is converged                                              YES
 OPT| **************************************************************************
 OPT| Estimated peak process memory after this step [MiB]                   1796

 --------------------------
 OPTIMIZATION STEP:     91
 --------------------------

 Number of electrons:                                                        424
 Number of occupied orbitals:                                                212
 Number of molecular orbitals:                                               212

 Number of orbital functions:                                                326
 Number of independent orbital functions:                                    326

 Extrapolation method: ASPC


 SCF WAVEFUNCTION OPTIMIZATION

  ----------------------------------- OT ---------------------------------------
  Minimizer      : DIIS                : direct inversion
                                         in the iterative subspace
                                         using   7 DIIS vectors
                                         safer DIIS on
  Preconditioner : FULL_SINGLE_INVERSE : inversion of 
                                         H + eS - 2*(Sc)(c^T*H*c+const)(Sc)^T
  Precond_solver : DEFAULT
  stepsize       :    0.08000000                  energy_gap     :    0.08000000
  eps_taylor     :   0.10000E-15                  max_taylor     :             4
  ----------------------------------- OT ---------------------------------------

  Step     Update method      Time    Convergence         Total energy    Change
  ------------------------------------------------------------------------------
     1 OT DIIS     0.80E-01    4.8     0.00011218      -938.6855449082 -9.39E+02
     2 OT DIIS     0.80E-01    6.1     0.00009860      -938.6855890679 -4.42E-05
     3 OT DIIS     0.80E-01    6.1     0.00009357      -938.6855993850 -1.03E-05
     4 OT DIIS     0.80E-01    6.1     0.00003529      -938.6856172650 -1.79E-05
     5 OT DIIS     0.80E-01    6.1     0.00002450      -938.6856196123 -2.35E-06
     6 OT DIIS     0.80E-01    6.1     0.00001399      -938.6856204791 -8.67E-07
     7 OT DIIS     0.80E-01    6.1     0.00000874      -938.6856208756 -3.96E-07

  *** SCF run converged in     7 steps ***


  Electronic density on regular grids:       -423.9999939521        0.0000060479
  Core density on regular grids:              423.9999999740       -0.0000000260
  Total charge density on r-space grids:        0.0000060218
  Total charge density g-space grids:           0.0000060218

  Overlap energy of the core charge distribution:               0.00000006174354
  Self energy of the core charge distribution:              -2435.54055198066590
  Core Hamiltonian energy:                                    709.18180245968813
  Hartree energy:                                            1010.77037216232600
  Exchange-correlation energy:                               -223.09724357868276

  Total energy:                                              -938.68562087559110

 ENERGY| Total FORCE_EVAL ( QS ) energy [hartree]           -938.685621096778505

 OPT| **************************************************************************
 OPT| Step number                                                             91
 OPT| Optimization method                                                  LBFGS
 OPT| Total energy [hartree]                                     -938.6856210968
 OPT| Effective energy change [hartree]                            -0.0000146831
 OPT| Decrease in energy                                                     YES
 OPT| Used time [s]                                                       50.423
 OPT|
 OPT| Maximum step size                                             0.0069630287
 OPT| Convergence limit for maximum step size                       0.0030000000
 OPT| Maximum step size is converged                                          NO
 OPT|
 OPT| RMS step size                                                 0.0008022292
 OPT| Convergence limit for RMS step size                           0.0015000000
 OPT| RMS step size is converged                                             YES
 OPT|
 OPT| Maximum gradient                                              0.0015476386
 OPT| Convergence limit for maximum gradient                        0.0010000000
 OPT| Maximum gradient is converged                                           NO
 OPT|
 OPT| RMS gradient                                                  0.0001995041
 OPT| Convergence limit for RMS gradient                            0.0003000000
 OPT| RMS gradient is converged                                              YES
 OPT| **************************************************************************
 OPT| Estimated peak process memory after this step [MiB]                   1796

 --------------------------
 OPTIMIZATION STEP:     92
 --------------------------

 Number of electrons:                                                        424
 Number of occupied orbitals:                                                212
 Number of molecular orbitals:                                               212

 Number of orbital functions:                                                326
 Number of independent orbital functions:                                    326

 Extrapolation method: ASPC


 SCF WAVEFUNCTION OPTIMIZATION

  ----------------------------------- OT ---------------------------------------
  Minimizer      : DIIS                : direct inversion
                                         in the iterative subspace
                                         using   7 DIIS vectors
                                         safer DIIS on
  Preconditioner : FULL_SINGLE_INVERSE : inversion of 
                                         H + eS - 2*(Sc)(c^T*H*c+const)(Sc)^T
  Precond_solver : DEFAULT
  stepsize       :    0.08000000                  energy_gap     :    0.08000000
  eps_taylor     :   0.10000E-15                  max_taylor     :             4
  ----------------------------------- OT ---------------------------------------

  Step     Update method      Time    Convergence         Total energy    Change
  ------------------------------------------------------------------------------
     1 OT DIIS     0.80E-01    5.1     0.00008764      -938.6855904867 -9.39E+02
     2 OT DIIS     0.80E-01    6.1     0.00008469      -938.6856149940 -2.45E-05
     3 OT DIIS     0.80E-01    6.1     0.00006737      -938.6856218676 -6.87E-06
     4 OT DIIS     0.80E-01    6.1     0.00003365      -938.6856312966 -9.43E-06
     5 OT DIIS     0.80E-01    6.1     0.00002122      -938.6856328409 -1.54E-06
     6 OT DIIS     0.80E-01    6.1     0.00001001      -938.6856334818 -6.41E-07
     7 OT DIIS     0.80E-01    6.1     0.00000683      -938.6856336923 -2.10E-07

  *** SCF run converged in     7 steps ***


  Electronic density on regular grids:       -423.9999939472        0.0000060528
  Core density on regular grids:              423.9999999740       -0.0000000260
  Total charge density on r-space grids:        0.0000060268
  Total charge density g-space grids:           0.0000060268

  Overlap energy of the core charge distribution:               0.00000006174162
  Self energy of the core charge distribution:              -2435.54055198066590
  Core Hamiltonian energy:                                    709.18290458994068
  Hartree energy:                                            1010.76957166171826
  Exchange-correlation energy:                               -223.09755802500200

  Total energy:                                              -938.68563369226740

 ENERGY| Total FORCE_EVAL ( QS ) energy [hartree]           -938.685633829639983

 OPT| **************************************************************************
 OPT| Step number                                                             92
 OPT| Optimization method                                                  LBFGS
 OPT| Total energy [hartree]                                     -938.6856338296
 OPT| Effective energy change [hartree]                            -0.0000127329
 OPT| Decrease in energy                                                     YES
 OPT| Used time [s]                                                       50.619
 OPT|
 OPT| Maximum step size                                             0.0070633080
 OPT| Convergence limit for maximum step size                       0.0030000000
 OPT| Maximum step size is converged                                          NO
 OPT|
 OPT| RMS step size                                                 0.0007386874
 OPT| Convergence limit for RMS step size                           0.0015000000
 OPT| RMS step size is converged                                             YES
 OPT|
 OPT| Maximum gradient                                              0.0008637135
 OPT| Convergence limit for maximum gradient                        0.0010000000
 OPT| Maximum gradient is converged                                          YES
 OPT|
 OPT| RMS gradient                                                  0.0001231330
 OPT| Convergence limit for RMS gradient                            0.0003000000
 OPT| RMS gradient is converged                                              YES
 OPT| **************************************************************************
 OPT| Estimated peak process memory after this step [MiB]                   1796

 --------------------------
 OPTIMIZATION STEP:     93
 --------------------------

 Number of electrons:                                                        424
 Number of occupied orbitals:                                                212
 Number of molecular orbitals:                                               212

 Number of orbital functions:                                                326
 Number of independent orbital functions:                                    326

 Extrapolation method: ASPC


 SCF WAVEFUNCTION OPTIMIZATION

  ----------------------------------- OT ---------------------------------------
  Minimizer      : DIIS                : direct inversion
                                         in the iterative subspace
                                         using   7 DIIS vectors
                                         safer DIIS on
  Preconditioner : FULL_SINGLE_INVERSE : inversion of 
                                         H + eS - 2*(Sc)(c^T*H*c+const)(Sc)^T
  Precond_solver : DEFAULT
  stepsize       :    0.08000000                  energy_gap     :    0.08000000
  eps_taylor     :   0.10000E-15                  max_taylor     :             4
  ----------------------------------- OT ---------------------------------------

  Step     Update method      Time    Convergence         Total energy    Change
  ------------------------------------------------------------------------------
     1 OT DIIS     0.80E-01    4.9     0.00004400      -938.6856340939 -9.39E+02
     2 OT DIIS     0.80E-01    6.1     0.00006129      -938.6856370789 -2.99E-06
     3 OT DIIS     0.80E-01    6.1     0.00002466      -938.6856402351 -3.16E-06
     4 OT DIIS     0.80E-01    6.1     0.00002161      -938.6856414120 -1.18E-06
     5 OT DIIS     0.80E-01    6.1     0.00000884      -938.6856419798 -5.68E-07

  *** SCF run converged in     5 steps ***


  Electronic density on regular grids:       -423.9999939459        0.0000060541
  Core density on regular grids:              423.9999999740       -0.0000000260
  Total charge density on r-space grids:        0.0000060281
  Total charge density g-space grids:           0.0000060281

  Overlap energy of the core charge distribution:               0.00000006144156
  Self energy of the core charge distribution:              -2435.54055198066590
  Core Hamiltonian energy:                                    709.18157463122657
  Hartree energy:                                            1010.77036911913353
  Exchange-correlation energy:                               -223.09703381092319

  Total energy:                                              -938.68564197978765

 ENERGY| Total FORCE_EVAL ( QS ) energy [hartree]           -938.685642107956937

 OPT| **************************************************************************
 OPT| Step number                                                             93
 OPT| Optimization method                                                  LBFGS
 OPT| Total energy [hartree]                                     -938.6856421080
 OPT| Effective energy change [hartree]                            -0.0000082783
 OPT| Decrease in energy                                                     YES
 OPT| Used time [s]                                                       38.149
 OPT|
 OPT| Maximum step size                                             0.0067048868
 OPT| Convergence limit for maximum step size                       0.0030000000
 OPT| Maximum step size is converged                                          NO
 OPT|
 OPT| RMS step size                                                 0.0006814018
 OPT| Convergence limit for RMS step size                           0.0015000000
 OPT| RMS step size is converged                                             YES
 OPT|
 OPT| Maximum gradient                                              0.0006545285
 OPT| Convergence limit for maximum gradient                        0.0010000000
 OPT| Maximum gradient is converged                                          YES
 OPT|
 OPT| RMS gradient                                                  0.0000968400
 OPT| Convergence limit for RMS gradient                            0.0003000000
 OPT| RMS gradient is converged                                              YES
 OPT| **************************************************************************
 OPT| Estimated peak process memory after this step [MiB]                   1796

 --------------------------
 OPTIMIZATION STEP:     94
 --------------------------

 Number of electrons:                                                        424
 Number of occupied orbitals:                                                212
 Number of molecular orbitals:                                               212

 Number of orbital functions:                                                326
 Number of independent orbital functions:                                    326

 Extrapolation method: ASPC


 SCF WAVEFUNCTION OPTIMIZATION

  ----------------------------------- OT ---------------------------------------
  Minimizer      : DIIS                : direct inversion
                                         in the iterative subspace
                                         using   7 DIIS vectors
                                         safer DIIS on
  Preconditioner : FULL_SINGLE_INVERSE : inversion of 
                                         H + eS - 2*(Sc)(c^T*H*c+const)(Sc)^T
  Precond_solver : DEFAULT
  stepsize       :    0.08000000                  energy_gap     :    0.08000000
  eps_taylor     :   0.10000E-15                  max_taylor     :             4
  ----------------------------------- OT ---------------------------------------

  Step     Update method      Time    Convergence         Total energy    Change
  ------------------------------------------------------------------------------
     1 OT DIIS     0.80E-01    4.9     0.00004078      -938.6856447500 -9.39E+02
     2 OT DIIS     0.80E-01    6.1     0.00005546      -938.6856475168 -2.77E-06
     3 OT DIIS     0.80E-01    6.1     0.00002566      -938.6856500920 -2.58E-06
     4 OT DIIS     0.80E-01    6.1     0.00001969      -938.6856512458 -1.15E-06
     5 OT DIIS     0.80E-01    6.1     0.00000897      -938.6856520061 -7.60E-07

  *** SCF run converged in     5 steps ***


  Electronic density on regular grids:       -423.9999939542        0.0000060458
  Core density on regular grids:              423.9999999739       -0.0000000261
  Total charge density on r-space grids:        0.0000060197
  Total charge density g-space grids:           0.0000060197

  Overlap energy of the core charge distribution:               0.00000006129024
  Self energy of the core charge distribution:              -2435.54055198066590
  Core Hamiltonian energy:                                    709.17735431840458
  Hartree energy:                                            1010.77350004035100
  Exchange-correlation energy:                               -223.09595444543191

  Total energy:                                              -938.68565200605190

 ENERGY| Total FORCE_EVAL ( QS ) energy [hartree]           -938.685652174680854

 OPT| **************************************************************************
 OPT| Step number                                                             94
 OPT| Optimization method                                                  LBFGS
 OPT| Total energy [hartree]                                     -938.6856521747
 OPT| Effective energy change [hartree]                            -0.0000100667
 OPT| Decrease in energy                                                     YES
 OPT| Used time [s]                                                       38.146
 OPT|
 OPT| Maximum step size                                             0.0157376423
 OPT| Convergence limit for maximum step size                       0.0030000000
 OPT| Maximum step size is converged                                          NO
 OPT|
 OPT| RMS step size                                                 0.0015196565
 OPT| Convergence limit for RMS step size                           0.0015000000
 OPT| RMS step size is converged                                              NO
 OPT|
 OPT| Maximum gradient                                              0.0008061139
 OPT| Convergence limit for maximum gradient                        0.0010000000
 OPT| Maximum gradient is converged                                          YES
 OPT|
 OPT| RMS gradient                                                  0.0001362609
 OPT| Convergence limit for RMS gradient                            0.0003000000
 OPT| RMS gradient is converged                                              YES
 OPT| **************************************************************************
 OPT| Estimated peak process memory after this step [MiB]                   1796

 --------------------------
 OPTIMIZATION STEP:     95
 --------------------------

 Number of electrons:                                                        424
 Number of occupied orbitals:                                                212
 Number of molecular orbitals:                                               212

 Number of orbital functions:                                                326
 Number of independent orbital functions:                                    326

 Extrapolation method: ASPC


 SCF WAVEFUNCTION OPTIMIZATION

  ----------------------------------- OT ---------------------------------------
  Minimizer      : DIIS                : direct inversion
                                         in the iterative subspace
                                         using   7 DIIS vectors
                                         safer DIIS on
  Preconditioner : FULL_SINGLE_INVERSE : inversion of 
                                         H + eS - 2*(Sc)(c^T*H*c+const)(Sc)^T
  Precond_solver : DEFAULT
  stepsize       :    0.08000000                  energy_gap     :    0.08000000
  eps_taylor     :   0.10000E-15                  max_taylor     :             4
  ----------------------------------- OT ---------------------------------------

  Step     Update method      Time    Convergence         Total energy    Change
  ------------------------------------------------------------------------------
     1 OT DIIS     0.80E-01    4.8     0.00005051      -938.6856498003 -9.39E+02
     2 OT DIIS     0.80E-01    6.1     0.00006174      -938.6856549896 -5.19E-06
     3 OT DIIS     0.80E-01    6.1     0.00003490      -938.6856582013 -3.21E-06
     4 OT DIIS     0.80E-01    6.6     0.00002294      -938.6856601352 -1.93E-06
     5 OT DIIS     0.80E-01    6.1     0.00001159      -938.6856613339 -1.20E-06
     6 OT DIIS     0.80E-01    6.1     0.00000845      -938.6856616516 -3.18E-07

  *** SCF run converged in     6 steps ***


  Electronic density on regular grids:       -423.9999939547        0.0000060453
  Core density on regular grids:              423.9999999739       -0.0000000261
  Total charge density on r-space grids:        0.0000060192
  Total charge density g-space grids:           0.0000060192

  Overlap energy of the core charge distribution:               0.00000006095356
  Self energy of the core charge distribution:              -2435.54055198066590
  Core Hamiltonian energy:                                    709.17597470107739
  Hartree energy:                                            1010.77428659476504
  Exchange-correlation energy:                               -223.09537102771256

  Total energy:                                              -938.68566165158256

 ENERGY| Total FORCE_EVAL ( QS ) energy [hartree]           -938.685661833227186

 OPT| **************************************************************************
 OPT| Step number                                                             95
 OPT| Optimization method                                                  LBFGS
 OPT| Total energy [hartree]                                     -938.6856618332
 OPT| Effective energy change [hartree]                            -0.0000096585
 OPT| Decrease in energy                                                     YES
 OPT| Used time [s]                                                       46.993
 OPT|
 OPT| Maximum step size                                             0.0137361135
 OPT| Convergence limit for maximum step size                       0.0030000000
 OPT| Maximum step size is converged                                          NO
 OPT|
 OPT| RMS step size                                                 0.0013020935
 OPT| Convergence limit for RMS step size                           0.0015000000
 OPT| RMS step size is converged                                             YES
 OPT|
 OPT| Maximum gradient                                              0.0008704041
 OPT| Convergence limit for maximum gradient                        0.0010000000
 OPT| Maximum gradient is converged                                          YES
 OPT|
 OPT| RMS gradient                                                  0.0001891455
 OPT| Convergence limit for RMS gradient                            0.0003000000
 OPT| RMS gradient is converged                                              YES
 OPT| **************************************************************************
 OPT| Estimated peak process memory after this step [MiB]                   1796

 --------------------------
 OPTIMIZATION STEP:     96
 --------------------------

 Number of electrons:                                                        424
 Number of occupied orbitals:                                                212
 Number of molecular orbitals:                                               212

 Number of orbital functions:                                                326
 Number of independent orbital functions:                                    326

 Extrapolation method: ASPC


 SCF WAVEFUNCTION OPTIMIZATION

  ----------------------------------- OT ---------------------------------------
  Minimizer      : DIIS                : direct inversion
                                         in the iterative subspace
                                         using   7 DIIS vectors
                                         safer DIIS on
  Preconditioner : FULL_SINGLE_INVERSE : inversion of 
                                         H + eS - 2*(Sc)(c^T*H*c+const)(Sc)^T
  Precond_solver : DEFAULT
  stepsize       :    0.08000000                  energy_gap     :    0.08000000
  eps_taylor     :   0.10000E-15                  max_taylor     :             4
  ----------------------------------- OT ---------------------------------------

  Step     Update method      Time    Convergence         Total energy    Change
  ------------------------------------------------------------------------------
     1 OT DIIS     0.80E-01    5.5     0.00006121      -938.6856568528 -9.39E+02
     2 OT DIIS     0.80E-01    6.1     0.00006994      -938.6856660037 -9.15E-06
     3 OT DIIS     0.80E-01    6.1     0.00004216      -938.6856702579 -4.25E-06
     4 OT DIIS     0.80E-01    6.1     0.00002481      -938.6856737698 -3.51E-06
     5 OT DIIS     0.80E-01    6.1     0.00001643      -938.6856749580 -1.19E-06
     6 OT DIIS     0.80E-01    6.1     0.00000891      -938.6856753893 -4.31E-07

  *** SCF run converged in     6 steps ***


  Electronic density on regular grids:       -423.9999939626        0.0000060374
  Core density on regular grids:              423.9999999739       -0.0000000261
  Total charge density on r-space grids:        0.0000060112
  Total charge density g-space grids:           0.0000060112

  Overlap energy of the core charge distribution:               0.00000006085312
  Self energy of the core charge distribution:              -2435.54055198066590
  Core Hamiltonian energy:                                    709.17452811136172
  Hartree energy:                                            1010.77526439336827
  Exchange-correlation energy:                               -223.09491597424477

  Total energy:                                              -938.68567538932780

 ENERGY| Total FORCE_EVAL ( QS ) energy [hartree]           -938.685675554743057

 OPT| **************************************************************************
 OPT| Step number                                                             96
 OPT| Optimization method                                                  LBFGS
 OPT| Total energy [hartree]                                     -938.6856755547
 OPT| Effective energy change [hartree]                            -0.0000137215
 OPT| Decrease in energy                                                     YES
 OPT| Used time [s]                                                       46.634
 OPT|
 OPT| Maximum step size                                             0.0234118375
 OPT| Convergence limit for maximum step size                       0.0030000000
 OPT| Maximum step size is converged                                          NO
 OPT|
 OPT| RMS step size                                                 0.0022444235
 OPT| Convergence limit for RMS step size                           0.0015000000
 OPT| RMS step size is converged                                              NO
 OPT|
 OPT| Maximum gradient                                              0.0009531193
 OPT| Convergence limit for maximum gradient                        0.0010000000
 OPT| Maximum gradient is converged                                          YES
 OPT|
 OPT| RMS gradient                                                  0.0001879570
 OPT| Convergence limit for RMS gradient                            0.0003000000
 OPT| RMS gradient is converged                                              YES
 OPT| **************************************************************************
 OPT| Estimated peak process memory after this step [MiB]                   1796

 --------------------------
 OPTIMIZATION STEP:     97
 --------------------------

 Number of electrons:                                                        424
 Number of occupied orbitals:                                                212
 Number of molecular orbitals:                                               212

 Number of orbital functions:                                                326
 Number of independent orbital functions:                                    326

 Extrapolation method: ASPC


 SCF WAVEFUNCTION OPTIMIZATION

  ----------------------------------- OT ---------------------------------------
  Minimizer      : DIIS                : direct inversion
                                         in the iterative subspace
                                         using   7 DIIS vectors
                                         safer DIIS on
  Preconditioner : FULL_SINGLE_INVERSE : inversion of 
                                         H + eS - 2*(Sc)(c^T*H*c+const)(Sc)^T
  Precond_solver : DEFAULT
  stepsize       :    0.08000000                  energy_gap     :    0.08000000
  eps_taylor     :   0.10000E-15                  max_taylor     :             4
  ----------------------------------- OT ---------------------------------------

  Step     Update method      Time    Convergence         Total energy    Change
  ------------------------------------------------------------------------------
     1 OT DIIS     0.80E-01    4.8     0.00007055      -938.6856660091 -9.39E+02
     2 OT DIIS     0.80E-01    6.1     0.00007447      -938.6856793476 -1.33E-05
     3 OT DIIS     0.80E-01    6.0     0.00005089      -938.6856842225 -4.87E-06
     4 OT DIIS     0.80E-01    6.1     0.00002413      -938.6856892549 -5.03E-06
     5 OT DIIS     0.80E-01    6.1     0.00001534      -938.6856907297 -1.47E-06
     6 OT DIIS     0.80E-01    6.1     0.00000923      -938.6856912356 -5.06E-07

  *** SCF run converged in     6 steps ***


  Electronic density on regular grids:       -423.9999939594        0.0000060406
  Core density on regular grids:              423.9999999738       -0.0000000262
  Total charge density on r-space grids:        0.0000060144
  Total charge density g-space grids:           0.0000060144

  Overlap energy of the core charge distribution:               0.00000006132947
  Self energy of the core charge distribution:              -2435.54055198066590
  Core Hamiltonian energy:                                    709.17818448651599
  Hartree energy:                                            1010.77297751729668
  Exchange-correlation energy:                               -223.09630132005177

  Total energy:                                              -938.68569123557563

 ENERGY| Total FORCE_EVAL ( QS ) energy [hartree]           -938.685691399605048

 OPT| **************************************************************************
 OPT| Step number                                                             97
 OPT| Optimization method                                                  LBFGS
 OPT| Total energy [hartree]                                     -938.6856913996
 OPT| Effective energy change [hartree]                            -0.0000158449
 OPT| Decrease in energy                                                     YES
 OPT| Used time [s]                                                       44.166
 OPT|
 OPT| Maximum step size                                             0.0197030669
 OPT| Convergence limit for maximum step size                       0.0030000000
 OPT| Maximum step size is converged                                          NO
 OPT|
 OPT| RMS step size                                                 0.0019619688
 OPT| Convergence limit for RMS step size                           0.0015000000
 OPT| RMS step size is converged                                              NO
 OPT|
 OPT| Maximum gradient                                              0.0012046569
 OPT| Convergence limit for maximum gradient                        0.0010000000
 OPT| Maximum gradient is converged                                           NO
 OPT|
 OPT| RMS gradient                                                  0.0002133483
 OPT| Convergence limit for RMS gradient                            0.0003000000
 OPT| RMS gradient is converged                                              YES
 OPT| **************************************************************************
 OPT| Estimated peak process memory after this step [MiB]                   1796

 --------------------------
 OPTIMIZATION STEP:     98
 --------------------------

 Number of electrons:                                                        424
 Number of occupied orbitals:                                                212
 Number of molecular orbitals:                                               212

 Number of orbital functions:                                                326
 Number of independent orbital functions:                                    326

 Extrapolation method: ASPC


 SCF WAVEFUNCTION OPTIMIZATION

  ----------------------------------- OT ---------------------------------------
  Minimizer      : DIIS                : direct inversion
                                         in the iterative subspace
                                         using   7 DIIS vectors
                                         safer DIIS on
  Preconditioner : FULL_SINGLE_INVERSE : inversion of 
                                         H + eS - 2*(Sc)(c^T*H*c+const)(Sc)^T
  Precond_solver : DEFAULT
  stepsize       :    0.08000000                  energy_gap     :    0.08000000
  eps_taylor     :   0.10000E-15                  max_taylor     :             4
  ----------------------------------- OT ---------------------------------------

  Step     Update method      Time    Convergence         Total energy    Change
  ------------------------------------------------------------------------------
     1 OT DIIS     0.80E-01    4.9     0.00007431      -938.6856785890 -9.39E+02
     2 OT DIIS     0.80E-01    6.1     0.00007997      -938.6856907397 -1.22E-05
     3 OT DIIS     0.80E-01    6.1     0.00005297      -938.6856957202 -4.98E-06
     4 OT DIIS     0.80E-01    6.1     0.00002580      -938.6856995066 -3.79E-06
     5 OT DIIS     0.80E-01    6.1     0.00001920      -938.6857007514 -1.24E-06
     6 OT DIIS     0.80E-01    6.1     0.00000975      -938.6857013361 -5.85E-07

  *** SCF run converged in     6 steps ***


  Electronic density on regular grids:       -423.9999939598        0.0000060402
  Core density on regular grids:              423.9999999738       -0.0000000262
  Total charge density on r-space grids:        0.0000060140
  Total charge density g-space grids:           0.0000060140

  Overlap energy of the core charge distribution:               0.00000006144034
  Self energy of the core charge distribution:              -2435.54055198066590
  Core Hamiltonian energy:                                    709.17904002566922
  Hartree energy:                                            1010.77230090437945
  Exchange-correlation energy:                               -223.09649034695613

  Total energy:                                              -938.68570133613298

 ENERGY| Total FORCE_EVAL ( QS ) energy [hartree]           -938.685701518631618

 OPT| **************************************************************************
 OPT| Step number                                                             98
 OPT| Optimization method                                                  LBFGS
 OPT| Total energy [hartree]                                     -938.6857015186
 OPT| Effective energy change [hartree]                            -0.0000101190
 OPT| Decrease in energy                                                     YES
 OPT| Used time [s]                                                       44.199
 OPT|
 OPT| Maximum step size                                             0.0118033254
 OPT| Convergence limit for maximum step size                       0.0030000000
 OPT| Maximum step size is converged                                          NO
 OPT|
 OPT| RMS step size                                                 0.0012250248
 OPT| Convergence limit for RMS step size                           0.0015000000
 OPT| RMS step size is converged                                             YES
 OPT|
 OPT| Maximum gradient                                              0.0005295274
 OPT| Convergence limit for maximum gradient                        0.0010000000
 OPT| Maximum gradient is converged                                          YES
 OPT|
 OPT| RMS gradient                                                  0.0001143422
 OPT| Convergence limit for RMS gradient                            0.0003000000
 OPT| RMS gradient is converged                                              YES
 OPT| **************************************************************************
 OPT| Estimated peak process memory after this step [MiB]                   1796

 --------------------------
 OPTIMIZATION STEP:     99
 --------------------------

 Number of electrons:                                                        424
 Number of occupied orbitals:                                                212
 Number of molecular orbitals:                                               212

 Number of orbital functions:                                                326
 Number of independent orbital functions:                                    326

 Extrapolation method: ASPC


 SCF WAVEFUNCTION OPTIMIZATION

  ----------------------------------- OT ---------------------------------------
  Minimizer      : DIIS                : direct inversion
                                         in the iterative subspace
                                         using   7 DIIS vectors
                                         safer DIIS on
  Preconditioner : FULL_SINGLE_INVERSE : inversion of 
                                         H + eS - 2*(Sc)(c^T*H*c+const)(Sc)^T
  Precond_solver : DEFAULT
  stepsize       :    0.08000000                  energy_gap     :    0.08000000
  eps_taylor     :   0.10000E-15                  max_taylor     :             4
  ----------------------------------- OT ---------------------------------------

  Step     Update method      Time    Convergence         Total energy    Change
  ------------------------------------------------------------------------------
     1 OT DIIS     0.80E-01    4.8     0.00005861      -938.6856917276 -9.39E+02
     2 OT DIIS     0.80E-01    6.1     0.00006348      -938.6856989425 -7.21E-06
     3 OT DIIS     0.80E-01    6.1     0.00004159      -938.6857018463 -2.90E-06
     4 OT DIIS     0.80E-01    6.1     0.00001532      -938.6857040739 -2.23E-06
     5 OT DIIS     0.80E-01    6.1     0.00001355      -938.6857046326 -5.59E-07
     6 OT DIIS     0.80E-01    6.1     0.00000735      -938.6857048865 -2.54E-07

  *** SCF run converged in     6 steps ***


  Electronic density on regular grids:       -423.9999939566        0.0000060434
  Core density on regular grids:              423.9999999738       -0.0000000262
  Total charge density on r-space grids:        0.0000060172
  Total charge density g-space grids:           0.0000060172

  Overlap energy of the core charge distribution:               0.00000006135270
  Self energy of the core charge distribution:              -2435.54055198066590
  Core Hamiltonian energy:                                    709.17984593946574
  Hartree energy:                                            1010.77156085236913
  Exchange-correlation energy:                               -223.09655975905267

  Total energy:                                              -938.68570488653086

 ENERGY| Total FORCE_EVAL ( QS ) energy [hartree]           -938.685705048034151

 OPT| **************************************************************************
 OPT| Step number                                                             99
 OPT| Optimization method                                                  LBFGS
 OPT| Total energy [hartree]                                     -938.6857050480
 OPT| Effective energy change [hartree]                            -0.0000035294
 OPT| Decrease in energy                                                     YES
 OPT| Used time [s]                                                       44.185
 OPT|
 OPT| Maximum step size                                             0.0021455672
 OPT| Convergence limit for maximum step size                       0.0030000000
 OPT| Maximum step size is converged                                         YES
 OPT|
 OPT| RMS step size                                                 0.0002950107
 OPT| Convergence limit for RMS step size                           0.0015000000
 OPT| RMS step size is converged                                             YES
 OPT|
 OPT| Maximum gradient                                              0.0003899782
 OPT| Convergence limit for maximum gradient                        0.0010000000
 OPT| Maximum gradient is converged                                          YES
 OPT|
 OPT| RMS gradient                                                  0.0000871325
 OPT| Convergence limit for RMS gradient                            0.0003000000
 OPT| RMS gradient is converged                                              YES
 OPT| **************************************************************************
 OPT| Estimated peak process memory after this step [MiB]                   1796

 *******************************************************************************
 ***                    GEOMETRY OPTIMIZATION COMPLETED                      ***
 *******************************************************************************

                    Reevaluating energy at the minimum

 Number of electrons:                                                        424
 Number of occupied orbitals:                                                212
 Number of molecular orbitals:                                               212

 Number of orbital functions:                                                326
 Number of independent orbital functions:                                    326

 Extrapolation method: ASPC


 SCF WAVEFUNCTION OPTIMIZATION

  ----------------------------------- OT ---------------------------------------
  Minimizer      : DIIS                : direct inversion
                                         in the iterative subspace
                                         using   7 DIIS vectors
                                         safer DIIS on
  Preconditioner : FULL_SINGLE_INVERSE : inversion of 
                                         H + eS - 2*(Sc)(c^T*H*c+const)(Sc)^T
  Precond_solver : DEFAULT
  stepsize       :    0.08000000                  energy_gap     :    0.08000000
  eps_taylor     :   0.10000E-15                  max_taylor     :             4
  ----------------------------------- OT ---------------------------------------

  Step     Update method      Time    Convergence         Total energy    Change
  ------------------------------------------------------------------------------
     1 OT DIIS     0.80E-01    4.8     0.00003867      -938.6856989574 -9.39E+02
     2 OT DIIS     0.80E-01    6.1     0.00005762      -938.6857004506 -1.49E-06
     3 OT DIIS     0.80E-01    6.1     0.00002054      -938.6857031195 -2.67E-06
     4 OT DIIS     0.80E-01    6.1     0.00001338      -938.6857039517 -8.32E-07
     5 OT DIIS     0.80E-01    6.1     0.00000960      -938.6857042858 -3.34E-07

  *** SCF run converged in     5 steps ***


  Electronic density on regular grids:       -423.9999939566        0.0000060434
  Core density on regular grids:              423.9999999738       -0.0000000262
  Total charge density on r-space grids:        0.0000060172
  Total charge density g-space grids:           0.0000060172

  Overlap energy of the core charge distribution:               0.00000006135270
  Self energy of the core charge distribution:              -2435.54055198066590
  Core Hamiltonian energy:                                    709.17983762205085
  Hartree energy:                                            1010.77153074713942
  Exchange-correlation energy:                               -223.09652073567102

  Total energy:                                              -938.68570428579392

 ENERGY| Total FORCE_EVAL ( QS ) energy [hartree]           -938.685704285793918

 -------------------------------------------------------------------------------
 -                                                                             -
 -                                DBCSR STATISTICS                             -
 -                                                                             -
 -------------------------------------------------------------------------------
 COUNTER                                    TOTAL       BLAS       SMM       ACC
 flops     1 x    20 x    20              3168000       0.0%    100.0%      0.0%     
 flops     1 x    32 x    20             15206400       0.0%    100.0%      0.0%     
 flops     1 x    20 x    32             15206400       0.0%    100.0%      0.0%     
 flops    20 x    20 x   326             28688000       0.0%    100.0%      0.0%     
 flops     1 x    20 x     1             32593280       0.0%    100.0%      0.0%     
 flops     4 x    20 x    20             54208000       0.0%    100.0%      0.0%     
 flops     1 x     1 x   212             92234416       0.0%    100.0%      0.0%     
 flops    20 x    32 x   326            137702400       0.0%    100.0%      0.0%     
 flops    32 x    20 x   326            137702400       0.0%    100.0%      0.0%     
 flops     1 x    32 x    32            170311680       0.0%    100.0%      0.0%     
 flops     4 x    32 x    20            260198400       0.0%    100.0%      0.0%     
 flops     4 x    20 x    32            260198400       0.0%    100.0%      0.0%     
 flops     1 x    32 x     1            312895488       0.0%    100.0%      0.0%     
 flops     4 x    20 x     1            586305120       0.0%    100.0%      0.0%     
 flops     1 x    20 x     4            586305120       0.0%    100.0%      0.0%     
 flops     1 x     4 x   212           1494033536       0.0%    100.0%      0.0%     
 flops     4 x     1 x   212           1513417120       0.0%    100.0%      0.0%     
 flops    32 x    32 x   326           1542266880       0.0%    100.0%      0.0%     
 flops     4 x    32 x    32           2914222080       0.0%    100.0%      0.0%     
 flops     1 x    32 x     4           5628529152       0.0%    100.0%      0.0%     
 flops     4 x    32 x     1           5628529152       0.0%    100.0%      0.0%     
 flops     4 x    20 x     4          11941985920       0.0%    100.0%      0.0%     
 flops     4 x     4 x   212          30774801920       0.0%    100.0%      0.0%     
 flops   326 x   212 x   326          88049240896       0.0%    100.0%      0.0%     
 flops     4 x    32 x     4         114643064832       0.0%    100.0%      0.0%     
 flops   212 x   212 x   326         212919143808       0.0%    100.0%      0.0%     
 flops   326 x   212 x   212         263731392000       0.0%    100.0%      0.0%     
 flops   212 x   212 x   212         286510808960       0.0%    100.0%      0.0%     
 flops inhomo. stacks                           0       0.0%      0.0%      0.0%
 flops total                         1.029984E+12       0.0%    100.0%      0.0%
 flops max/rank                      1.029984E+12       0.0%    100.0%      0.0%
 matmuls inhomo. stacks                         0       0.0%      0.0%      0.0%
 matmuls total                          194769703       0.0%    100.0%      0.0%
 number of processed stacks                266268       0.0%    100.0%      0.0%
 average stack size                                     0.0     731.5       0.0
 marketing flops                     1.172452E+12
 -------------------------------------------------------------------------------
 # multiplications                          40533
 max memory usage/rank               1.885385E+09
 # max total images/rank                        1
 # max 3D layers                                1
 # MPI messages exchanged                       0
 -------------------------------------------------------------------------------
 -                                                                             -
 -                      DBCSR MESSAGE PASSING PERFORMANCE                      -
 -                                                                             -
 -------------------------------------------------------------------------------
 ROUTINE             CALLS      AVE VOLUME [Bytes]
 MP_Bcast               29                     12.
 MP_Allreduce       215103                      8.
 MP_Alltoall        139722                 117785.
 MP_ISend           161692                  17216.
 MP_IRecv           161692                  17216.
 -------------------------------------------------------------------------------

 -------------------------------------------------------------------------------
 -                                                                             -
 -                                DBM STATISTICS                               -
 -                                                                             -
 -------------------------------------------------------------------------------
    M  x    N  x    K                                          COUNT     PERCENT
 -------------------------------------------------------------------------------

 -------------------------------------------------------------------------------
 -                                                                             -
 -                                GRID STATISTICS                              -
 -                                                                             -
 -------------------------------------------------------------------------------
 LP    KERNEL             BACKEND                              COUNT     PERCENT
 2     collocate ortho    CPU                               65371867      34.29%
 2     integrate ortho    CPU                               63120096      33.11%
 1     collocate ortho    CPU                               25396567      13.32%
 1     integrate ortho    CPU                               24225568      12.71%
 0     collocate ortho    CPU                                4576872       2.40%
 0     integrate ortho    CPU                                4319373       2.27%
 3     integrate ortho    CPU                                3631869       1.90%
 0     collocate general  CPU                                  10450       0.01%
 1     integrate general  CPU                                  10355       0.01%
 -------------------------------------------------------------------------------

 MEMORY| Estimated peak process memory [MiB]                                1796

 -------------------------------------------------------------------------------
 -                                                                             -
 -                         MESSAGE PASSING PERFORMANCE                         -
 -                                                                             -
 -------------------------------------------------------------------------------

 ROUTINE             CALLS      AVE VOLUME [Bytes]
 MP_Group                4
 MP_Bcast            45211                   1296.
 MP_Allreduce       120478                    904.
 MP_Sync               625
 -------------------------------------------------------------------------------


 -------------------------------------------------------------------------------
 -                                                                             -
 -                           R E F E R E N C E S                               -
 -                                                                             -
 -------------------------------------------------------------------------------
 
 CP2K version 2025.1, the CP2K developers group (2025).
 CP2K is freely available from https://www.cp2k.org/ .
 
 T. D. Kuehne, M. Iannuzzi, M. Del Ben, V. V. Rybkin, P. Seewald, F. Stein, T. 
 Laino, R. Z. Khaliullin, O. Schuett, F. Schiffmann, D. Golze, J. Wilhelm, S. 
 Chulkov, M. H. Bani-Hashemian, V. Weber, U. Borstnik, M. Taillefumier, A. S. 
 Jakobovits, A. Lazzaro, H. Pabst, T. Mueller, R. Schade, M. Guidon, S. 
 Andermatt, N. Holmberg, G. K. Schenter, A. Hehn, A. Bussy, F. Belleflamme, G. 
 Tabacchi, A. Gloess, M. Lass, I. Bethune, C. J. Mundy, C. Plessl, M. Watkins, 
 J. VandeVondele, M. Krack, J. Hutter.
 J. Chem. Phys. 152, 194103 (2020).
 CP2K: An electronic structure and molecular dynamics software package - 
 Quickstep: Efficient and accurate electronic structure calculations.
 https://doi.org/10.1063/5.0007045

 O. Schuett, P. Messmer, J. Hutter, J. VandeVondele.
 Electronic Structure Calculations on Graphics Processing Units, 173-190 (2016).
 GPU-Accelerated Sparse Matrix-Matrix Multiplication for Linear Scaling Density 
 Functional Theory.
 https://doi.org/10.1002/9781118670712.ch8

 A. Heinecke, G. Henry, M. Hutchinson, H. Pabst.
 Proceedings of Intl. Supercomputing Conference, 981-991 (2016).
 LIBXSMM: Accelerating Small Matrix Multiplications by Runtime Code Generation.
 https://doi.org/10.1109/SC.2016.83

 J. Hutter, M. Iannuzzi, F. Schiffmann, J. VandeVondele.
 WIREs Comput Mol Sci. 4, 15-25 (2014).
 CP2K: atomistic simulations of condensed matter systems.
 https://doi.org/10.1002/wcms.1159

 U. Borstnik, J. VandeVondele, V. Weber, J. Hutter.
 Parallel Comput. 40, 47-58 (2014).
 Sparse matrix multiplication: The distributed block-compressed sparse row 
 library.
 https://doi.org/10.1016/j.parco.2014.03.012

 A. Marek, V. Blum, R. Johanni, V. Havu, B. Lang, T. Auckenthaler, A. Heinecke, 
 H. Bungartz, H. Lederer.
 J. Phys. Condens. Matter 26, 213201 (2014).
 The ELPA library: scalable parallel eigenvalue solutions for electronic 
 structure theory and computational science.
 https://doi.org/10.1088/0953-8984/26/21/213201

 J. VandeVondele, J. Hutter.
 J. Chem. Phys. 127, 114105 (2007).
 Gaussian basis sets for accurate calculations on molecular systems in gas and 
 condensed phases.
 https://doi.org/10.1063/1.2770708

 T. D. Kühne, M. Krack, F. R. Mohamed, M. Parrinello.
 Phys. Rev. Lett. 98, 066401 (2007).
 Efficient and accurate Car-Parrinello-like approach to Born-Oppenheimer 
 molecular dynamics.
 https://doi.org/10.1103/PhysRevLett.98.066401

 J. VandeVondele, M. Krack, F. Mohamed, M. Parrinello, T. Chassaing, J. Hutter.
 Comput. Phys. Commun. 167, 103-128 (2005).
 QUICKSTEP: Fast and accurate density functional calculations using a mixed 
 Gaussian and plane waves approach.
 https://doi.org/10.1016/j.cpc.2004.12.014

 M. Krack.
 Theor. Chem. Acc. 114, 145-152 (2005).
 Pseudopotentials for H to Kr optimized for gradient-corrected 
 exchange-correlation functionals.
 https://doi.org/10.1007/s00214-005-0655-y

 M. Frigo, S. G. Johnson.
 Proc. IEEE 93, 216-231 (2005).
 The design and implementation of FFTW3.
 https://doi.org/10.1109/JPROC.2004.840301

 J. Kolafa.
 J. Comput. Chem. 25, 335-342 (2004).
 Time-reversible always stable predictor-corrector method for molecular dynamics 
 of polarizable molecules.
 https://doi.org/10.1002/jcc.10385

 J. VandeVondele, J. Hutter.
 J. Chem. Phys. 118, 4365-4369 (2003).
 An efficient orbital transformation method for electronic structure 
 calculations.
 https://doi.org/10.1063/1.1543154

 C. Hartwigsen, S. Goedecker, J. Hutter.
 Phys. Rev. B 58, 3641-3662 (1998).
 Relativistic separable dual-space Gaussian pseudopotentials from H to Rn.
 https://doi.org/10.1103/PhysRevB.58.3641

 G. Lippert, J. Hutter, M. Parrinello.
 Mol. Phys. 92, 477-487 (1997).
 A hybrid Gaussian and plane wave density functional scheme.
 https://doi.org/10.1080/002689797170220

 S. Goedecker, M. Teter, J. Hutter.
 Phys. Rev. B 54, 1703-1710 (1996).
 Separable dual-space Gaussian pseudopotentials.
 https://doi.org/10.1103/PhysRevB.54.1703

 J. P. Perdew, K. Burke, M. Ernzerhof.
 Phys. Rev. Lett. 77, 3865-3868 (1996).
 Generalized gradient approximation made simple.
 https://doi.org/10.1103/PhysRevLett.77.3865

 R. H. Byrd, P. H. Lu, J. Nocedal, C. Y. Zhu.
 SIAM J. Sci. Comput. 16, 1190-1208 (1995).
 A Limited Memory Algorithm for Bound Constrained Optimization.
 https://doi.org/10.1137/0916069


 -------------------------------------------------------------------------------
 -                                                                             -
 -                                T I M I N G                                  -
 -                                                                             -
 -------------------------------------------------------------------------------
 SUBROUTINE                       CALLS  ASD         SELF TIME        TOTAL TIME
                                MAXIMUM       AVERAGE  MAXIMUM  AVERAGE  MAXIMUM
 CP2K                                 1  1.0     0.76     0.76 12105.36 12105.36
 cp_geo_opt                           1  2.0     0.04     0.04 12103.35 12103.35
 geoopt_lbfgs                         1  3.0     0.02     0.02 12103.32 12103.32
 cp_eval_at                         110  5.0     0.26     0.26 12102.16 12102.16
 cp_opt_gopt_step                    99  4.0     0.39     0.39 12070.79 12070.79
 qs_forces                          109  6.0     0.44     0.44 12069.22 12069.22
 qs_energies                        110  7.0     0.48     0.48 11483.21 11483.21
 scf_env_do_scf                     110  8.0     0.04     0.04 11248.93 11248.93
 scf_env_do_scf_inner_loop         1844  9.0     0.40     0.40 10718.73 10718.73
 rebuild_ks_matrix                 1953 10.8     0.02     0.02  9241.86  9241.86
 qs_ks_build_kohn_sham_matrix      1953 11.8     0.98     0.98  9241.84  9241.84
 qs_ks_update_qs_env               1954 10.0     0.06     0.06  8688.43  8688.43
 fft_wrap_pw1pw2                  33316 15.2     0.41     0.41  6244.92  6244.92
 fft_wrap_pw1pw2_150              21595 16.6    88.56    88.56  6096.79  6096.79
 qs_vxc_create                     1953 12.8     0.14     0.14  5968.84  5968.84
 xc_vxc_pw_create                  1953 13.8   394.32   394.32  5968.70  5968.70
 fft3d_s                          33317 17.2  4329.30  4329.30  4329.43  4329.43
 xc_pw_derive                     11718 15.8     0.15     0.15  3639.52  3639.52
 xc_rho_set_and_dset_create        1953 14.8   277.05   277.05  2760.73  2760.73
 xc_pw_divergence                  1953 14.8     0.05     0.05  2633.03  2633.03
 qs_rho_update_rho_low             1954 10.0     0.09     0.09  2561.18  2561.18
 calculate_rho_elec                1954 11.0    45.75    45.75  2561.09  2561.09
 sum_up_and_integrate              1953 12.8     0.19     0.19  2305.53  2305.53
 integrate_v_rspace                1953 13.8     1.47     1.47  2053.08  2053.08
 grid_integrate_task_list          1953 14.8  1371.11  1371.11  1371.11  1371.11
 density_rs2pw                     1954 12.0     0.12     0.12  1275.52  1275.52
 grid_collocate_task_list          1954 12.0  1239.82  1239.82  1239.82  1239.82
 potential_pw2rs                   1953 14.8     1.33     1.33   680.50   680.50
 xc_functional_eval                1953 15.8     0.05     0.05   652.31   652.31
 pbe_lda_eval                      1953 16.8   652.26   652.26   652.26   652.26
 pw_scatter_s                     17578 17.5   602.02   602.02   602.02   602.02
 pw_gather_s                      15738 16.8   556.38   556.38   556.38   556.38
 qs_ks_update_qs_env_forces         109  7.0     0.01     0.01   554.31   554.31
 pw_axpy                          19534 14.2   552.51   552.51   552.51   552.51
 init_scf_loop                      110  9.0     0.06     0.06   529.93   529.93
 pw_derive                        17577 16.2   393.04   393.04   393.04   393.04
 pw_copy_from_array               17578 17.5   349.11   349.11   349.11   349.11
 pw_poisson_solve                  1953 12.8     0.07     0.07   324.16   324.16
 pw_copy_to_array                 15738 16.8   312.14   312.14   312.14   312.14
 pw_copy                          29295 15.4   244.56   244.56   244.56   244.56
 -------------------------------------------------------------------------------

 The number of warnings for this run is : 0
 
 -------------------------------------------------------------------------------
  **** **** ******  **  PROGRAM ENDED AT                 2026-10-08 08:29:46.537
 ***** ** ***  *** **   PROGRAM RAN ON                                    r6i5n2
 **    ****   ******    PROGRAM RAN BY                                   a266017
 ***** **    ** ** **   PROGRAM PROCESS ID                                976803
  **** **  *******  **  PROGRAM STOPPED IN /home/g7/a266017/VASP/cp2k/runs/rib_y
                                           _o37_al
