 DBCSR| CPU Multiplication driver                                           XSMM (U)
 DBCSR| Multrec recursion limit                                              512 (U)
 DBCSR| Multiplication stack size                                           1000 (D)
 DBCSR| Maximum elements for images                                    UNLIMITED (U)
 DBCSR| Multiplicative factor virtual images                                   1 (U)
 DBCSR| Use multiplication densification                                       T (D)
 DBCSR| Multiplication size stacks                                             3 (U)
 DBCSR| Use memory pool for CPU allocation                                     F (U)
 DBCSR| Number of 3D layers                                               SINGLE (U)
 DBCSR| Use MPI memory allocation                                              F (U)
 DBCSR| Use RMA algorithm                                                      F (U)
 DBCSR| Use Communication thread                                               T (U)
 DBCSR| Communication thread load                                             87 (D)
 DBCSR| MPI: My process id                                                     0
 DBCSR| MPI: Number of processes                                               1
 DBCSR| OMP: Current number of threads                                         1
 DBCSR| OMP: Max number of threads                                             1
 DBCSR| Split modifier for TAS multiplication algorithm                  1.0E+00 (U)


  **** **** ******  **  PROGRAM STARTED AT               2026-10-08 08:29:53.328
 ***** ** ***  *** **   PROGRAM STARTED ON                                r6i5n2
 **    ****   ******    PROGRAM STARTED BY                               a266017
 ***** **    ** ** **   PROGRAM PROCESS ID                                977402
  **** **  *******  **  PROGRAM STARTED IN /home/g7/a266017/VASP/cp2k/runs/rib_y
                                           _o37_al

 CP2K| version string:                                       CP2K version 2025.1
 CP2K| source code revision number:                                  git:9635df4
 CP2K| cp2kflags: omp libint fftw3 libxc libgrpp elpa parallel scalapack mpi_f08
 CP2K|             cosma xsmm plumed2 spglib mkl sirius libvori libbqb libvdwxc
 CP2K|             hdf5
 CP2K| is freely available from                            https://www.cp2k.org/
 CP2K| Program compiled at                          Fri Mar 13 14:45:02 JST 2026
 CP2K| Program compiled on                            s86fs1.tokai-sc.jaea.go.jp
 CP2K| Program compiled for                                                local
 CP2K| Data directory path                /home/center/app/CP2K/cp2k-2025.1/data
 CP2K| Input file name                                                    sp.inp
 
 GLOBAL| Force Environment number                                              1
 GLOBAL| Basis set file name                                        BASIS_MOLOPT
 GLOBAL| Potential file name                                      GTH_POTENTIALS
 GLOBAL| MM Potential file name                                     MM_POTENTIAL
 GLOBAL| Coordinate file name                                        relaxed.xyz
 GLOBAL| Method name                                                        CP2K
 GLOBAL| Project name                                                         sp
 GLOBAL| Run type                                                         ENERGY
 GLOBAL| FFT library                                                       FFTW3
 GLOBAL| Diagonalization library                                            ELPA
 GLOBAL| DGEMM library                                                      BLAS
 GLOBAL| Minimum number of eigenvectors for ELPA usage                        16
 GLOBAL| Orthonormality check for eigenvectors                          DISABLED
 GLOBAL| Matrix multiplication library                                     COSMA
 GLOBAL| All-to-all communication in single precision                          F
 GLOBAL| FFTs using library dependent lengths                                  F
 GLOBAL| Grid backend                                                       AUTO
 GLOBAL| Global print level                                                  LOW
 GLOBAL| MPI I/O enabled                                                       T
 GLOBAL| Total number of message passing processes                             1
 GLOBAL| Number of threads for this process                                    1
 GLOBAL| This output is from process                                           0
 GLOBAL| OpenMP stack size per thread (OMP_STACKSIZE)                    default
 GLOBAL| CPU model name                Intel(R) Xeon(R) Gold 6242R CPU @ 3.10GHz
 GLOBAL| CPUID                                                              1003

 MEMORY| system memory details [Kb]
 MEMORY|                        rank 0           min           max       average
 MEMORY| MemTotal            196248260     196248260     196248260     196248260
 MEMORY| MemFree             182760280     182760280     182760280     182760280
 MEMORY| Buffers                     0             0             0             0
 MEMORY| Cached                8984904       8984904       8984904       8984904
 MEMORY| Slab                  1239996       1239996       1239996       1239996
 MEMORY| SReclaimable           182232        182232        182232        182232
 MEMORY| MemLikelyFree       191927416     191927416     191927416     191927416

 
 GENERATE|  Preliminary Number of Bonds generated:                             0
 GENERATE|  Achieved consistency in connectivity generation.

 *******************************************************************************
 *******************************************************************************
 **                                                                           **
 **     #####                         ##              ##                      **
 **    ##   ##            ##          ##              ##                      **
 **   ##     ##                       ##            ######                    **
 **   ##     ##  ##   ##  ##   #####  ##  ##   ####   ##    #####    #####    **
 **   ##     ##  ##   ##  ##  ##      ## ##   ##      ##   ##   ##  ##   ##   **
 **   ##  ## ##  ##   ##  ##  ##      ####     ###    ##   ######   ######    **
 **    ##  ###   ##   ##  ##  ##      ## ##      ##   ##   ##       ##        **
 **     #######   #####   ##   #####  ##  ##  ####    ##    #####   ##        **
 **           ##                                                    ##        **
 **                                                                           **
 **                                                ... make the atoms dance   **
 **                                                                           **
 **            Copyright (C) by CP2K developers group (2000-2025)             **
 **                      J. Chem. Phys. 152, 194103 (2020)                    **
 **                                                                           **
 *******************************************************************************


 TOTAL NUMBERS AND MAXIMUM NUMBERS

  Total number of            - Atomic kinds:                                   4
                             - Atoms:                                         95
                             - Shell sets:                                    95
                             - Shells:                                       439
                             - Primitive Cartesian functions:                451
                             - Cartesian basis functions:                   1168
                             - Spherical basis functions:                   1091

  Maximum angular momentum of- Orbital basis functions:                        2
                             - Local part of the GTH pseudopotential:          2
                             - Non-local part of the GTH pseudopotential:      2


 SCF PARAMETERS         Density guess:                                    ATOMIC
                        --------------------------------------------------------
                        max_scf:                                             200
                        max_scf_history:                                       0
                        max_diis:                                              4
                        --------------------------------------------------------
                        eps_scf:                                        5.00E-06
                        eps_scf_history:                                0.00E+00
                        eps_diis:                                       1.00E-01
                        eps_eigval:                                     1.00E-05
                        --------------------------------------------------------
                        level_shift [a.u.]:                             0.000000
                        --------------------------------------------------------
                        No outer SCF

 Number of electrons:                                                        424
 Number of occupied orbitals:                                                212
 Number of molecular orbitals:                                               212

 Number of orbital functions:                                               1091
 Number of independent orbital functions:                                   1091

 Extrapolation method: initial_guess


 SCF WAVEFUNCTION OPTIMIZATION

  ----------------------------------- OT ---------------------------------------
  Minimizer      : DIIS                : direct inversion
                                         in the iterative subspace
                                         using   7 DIIS vectors
                                         safer DIIS on
  Preconditioner : FULL_SINGLE_INVERSE : inversion of 
                                         H + eS - 2*(Sc)(c^T*H*c+const)(Sc)^T
  Precond_solver : DEFAULT
  stepsize       :    0.08000000                  energy_gap     :    0.08000000
  eps_taylor     :   0.10000E-15                  max_taylor     :             4
  ----------------------------------- OT ---------------------------------------

  Step     Update method      Time    Convergence         Total energy    Change
  ------------------------------------------------------------------------------
     1 OT DIIS     0.80E-01    9.9     0.03736171      -914.8068472473 -9.15E+02
     2 OT DIIS     0.80E-01   12.1     0.13304902      -902.8685737860  1.19E+01
     3 OT DIIS     0.80E-01   12.2     0.03137401      -926.0105087561 -2.31E+01
     4 OT DIIS     0.80E-01   12.1     0.03352820      -928.5202854846 -2.51E+00
     5 OT DIIS     0.80E-01   12.1     0.01475546      -932.9904666604 -4.47E+00
     6 OT DIIS     0.80E-01   12.1     0.01059497      -937.1518702665 -4.16E+00
     7 OT DIIS     0.80E-01   12.2     0.00753848      -939.5481155804 -2.40E+00
     8 OT DIIS     0.80E-01   12.2     0.00532570      -941.0778241225 -1.53E+00
     9 OT DIIS     0.80E-01   12.2     0.00378197      -941.9138703781 -8.36E-01
    10 OT DIIS     0.80E-01   12.1     0.00268603      -942.3720788037 -4.58E-01
    11 OT DIIS     0.80E-01   12.2     0.00204810      -942.6056137265 -2.34E-01
    12 OT DIIS     0.80E-01   12.1     0.00155291      -942.7811307309 -1.76E-01
    13 OT DIIS     0.80E-01   12.1     0.00128832      -942.8869271418 -1.06E-01
    14 OT DIIS     0.80E-01   12.2     0.00115903      -942.9557219103 -6.88E-02
    15 OT DIIS     0.80E-01   12.2     0.00107758      -943.0077102633 -5.20E-02
    16 OT DIIS     0.80E-01   12.1     0.00100774      -943.0591744305 -5.15E-02
    17 OT DIIS     0.80E-01   12.1     0.00090757      -943.1080738563 -4.89E-02
    18 OT DIIS     0.80E-01   12.2     0.00070943      -943.1695513988 -6.15E-02
    19 OT DIIS     0.80E-01   12.1     0.00057118      -943.1981063578 -2.86E-02
    20 OT DIIS     0.80E-01   12.2     0.00046307      -943.2154155171 -1.73E-02
    21 OT DIIS     0.80E-01   12.2     0.00036711      -943.2279649734 -1.25E-02
    22 OT DIIS     0.80E-01   12.2     0.00029745      -943.2362240140 -8.26E-03
    23 OT DIIS     0.80E-01   12.1     0.00024756      -943.2411466970 -4.92E-03
    24 OT DIIS     0.80E-01   12.2     0.00020902      -943.2444318024 -3.29E-03
    25 OT DIIS     0.80E-01   12.2     0.00018024      -943.2471842871 -2.75E-03
    26 OT DIIS     0.80E-01   12.2     0.00015333      -943.2492173759 -2.03E-03
    27 OT DIIS     0.80E-01   12.2     0.00013190      -943.2509267430 -1.71E-03
    28 OT DIIS     0.80E-01   12.2     0.00011324      -943.2521867838 -1.26E-03
    29 OT DIIS     0.80E-01   12.1     0.00009975      -943.2531735717 -9.87E-04
    30 OT DIIS     0.80E-01   12.1     0.00009173      -943.2537654045 -5.92E-04
    31 OT DIIS     0.80E-01   12.2     0.00008232      -943.2544732133 -7.08E-04
    32 OT DIIS     0.80E-01   12.1     0.00007536      -943.2550125086 -5.39E-04
    33 OT DIIS     0.80E-01   12.1     0.00006890      -943.2554844164 -4.72E-04
    34 OT DIIS     0.80E-01   12.2     0.00006235      -943.2559944472 -5.10E-04
    35 OT DIIS     0.80E-01   12.1     0.00005792      -943.2563131320 -3.19E-04
    36 OT DIIS     0.80E-01   12.1     0.00005352      -943.2566448009 -3.32E-04
    37 OT DIIS     0.80E-01   12.2     0.00004864      -943.2569774074 -3.33E-04
    38 OT DIIS     0.80E-01   12.2     0.00004475      -943.2572378442 -2.60E-04
    39 OT DIIS     0.80E-01   12.1     0.00004100      -943.2574673363 -2.29E-04
    40 OT DIIS     0.80E-01   12.2     0.00003845      -943.2576242159 -1.57E-04
    41 OT DIIS     0.80E-01   12.2     0.00003597      -943.2577874448 -1.63E-04
    42 OT DIIS     0.80E-01   12.1     0.00003382      -943.2579269748 -1.40E-04
    43 OT DIIS     0.80E-01   12.1     0.00003217      -943.2580464915 -1.20E-04
    44 OT DIIS     0.80E-01   12.2     0.00003056      -943.2581661888 -1.20E-04
    45 OT DIIS     0.80E-01   12.2     0.00002900      -943.2582892530 -1.23E-04
    46 OT DIIS     0.80E-01   12.1     0.00002768      -943.2583954379 -1.06E-04
    47 OT DIIS     0.80E-01   12.2     0.00002646      -943.2584902102 -9.48E-05
    48 OT DIIS     0.80E-01   12.1     0.00002548      -943.2585719562 -8.17E-05
    49 OT DIIS     0.80E-01   12.1     0.00002449      -943.2586499610 -7.80E-05
    50 OT DIIS     0.80E-01   12.2     0.00002353      -943.2587318611 -8.19E-05
    51 OT DIIS     0.80E-01   12.2     0.00002259      -943.2588110727 -7.92E-05
    52 OT DIIS     0.80E-01   12.1     0.00002169      -943.2588930887 -8.20E-05
    53 OT DIIS     0.80E-01   12.2     0.00002088      -943.2589658696 -7.28E-05
    54 OT DIIS     0.80E-01   12.2     0.00002013      -943.2590370040 -7.11E-05
    55 OT DIIS     0.80E-01   12.1     0.00001951      -943.2590999905 -6.30E-05
    56 OT DIIS     0.80E-01   12.2     0.00001897      -943.2591523675 -5.24E-05
    57 OT DIIS     0.80E-01   12.2     0.00001844      -943.2592093788 -5.70E-05
    58 OT DIIS     0.80E-01   12.1     0.00001789      -943.2592689614 -5.96E-05
    59 OT DIIS     0.80E-01   12.1     0.00001735      -943.2593331833 -6.42E-05
    60 OT DIIS     0.80E-01   12.2     0.00001686      -943.2593870801 -5.39E-05
    61 OT DIIS     0.80E-01   12.2     0.00001634      -943.2594481361 -6.11E-05
    62 OT DIIS     0.80E-01   12.1     0.00001581      -943.2595085219 -6.04E-05
    63 OT DIIS     0.80E-01   12.2     0.00001537      -943.2595546125 -4.61E-05
    64 OT DIIS     0.80E-01   12.2     0.00001491      -943.2596024258 -4.78E-05
    65 OT DIIS     0.80E-01   12.1     0.00001438      -943.2596553610 -5.29E-05
    66 OT DIIS     0.80E-01   12.1     0.00001391      -943.2597069432 -5.16E-05
    67 OT DIIS     0.80E-01   12.2     0.00001348      -943.2597427232 -3.58E-05
    68 OT DIIS     0.80E-01   12.1     0.00001301      -943.2597944377 -5.17E-05
    69 OT DIIS     0.80E-01   12.1     0.00001262      -943.2598385798 -4.41E-05
    70 OT DIIS     0.80E-01   12.2     0.00001231      -943.2598583534 -1.98E-05
    71 OT DIIS     0.80E-01   12.2     0.00001186      -943.2598971062 -3.88E-05
    72 OT DIIS     0.80E-01   12.1     0.00001137      -943.2599343607 -3.73E-05
    73 OT DIIS     0.80E-01   12.2     0.00001101      -943.2599682830 -3.39E-05
    74 OT DIIS     0.80E-01   12.1     0.00001062      -943.2599884620 -2.02E-05
    75 OT DIIS     0.80E-01   12.1     0.00001011      -943.2600217629 -3.33E-05
    76 OT DIIS     0.80E-01   12.2     0.00000958      -943.2600514175 -2.97E-05
    77 OT DIIS     0.80E-01   12.1     0.00000924      -943.2600770732 -2.57E-05
    78 OT DIIS     0.80E-01   12.1     0.00000877      -943.2601008954 -2.38E-05
    79 OT DIIS     0.80E-01   12.1     0.00000842      -943.2601195529 -1.87E-05
    80 OT DIIS     0.80E-01   12.1     0.00000806      -943.2601402768 -2.07E-05
    81 OT DIIS     0.80E-01   12.1     0.00000783      -943.2601534462 -1.32E-05
    82 OT DIIS     0.80E-01   12.1     0.00000755      -943.2601688106 -1.54E-05
    83 OT DIIS     0.80E-01   12.2     0.00000723      -943.2601877517 -1.89E-05
    84 OT DIIS     0.80E-01   12.1     0.00000698      -943.2602034758 -1.57E-05
    85 OT DIIS     0.80E-01   12.1     0.00000680      -943.2602132672 -9.79E-06
    86 OT DIIS     0.80E-01   12.1     0.00000653      -943.2602285639 -1.53E-05
    87 OT DIIS     0.80E-01   12.2     0.00000627      -943.2602426072 -1.40E-05
    88 OT DIIS     0.80E-01   12.1     0.00000603      -943.2602553288 -1.27E-05
    89 OT DIIS     0.80E-01   12.2     0.00000585      -943.2602638080 -8.48E-06
    90 OT DIIS     0.80E-01   12.2     0.00000565      -943.2602732723 -9.46E-06
    91 OT DIIS     0.80E-01   12.1     0.00000538      -943.2602864271 -1.32E-05
    92 OT DIIS     0.80E-01   12.1     0.00000521      -943.2602937720 -7.34E-06
    93 OT DIIS     0.80E-01   12.2     0.00000502      -943.2603025181 -8.75E-06
    94 OT DIIS     0.80E-01   12.1     0.00000482      -943.2603111854 -8.67E-06

  *** SCF run converged in    94 steps ***


  Electronic density on regular grids:       -423.9999999976        0.0000000024
  Core density on regular grids:              423.9999999737       -0.0000000263
  Total charge density on r-space grids:       -0.0000000239
  Total charge density g-space grids:          -0.0000000239

  Overlap energy of the core charge distribution:               0.00000006135270
  Self energy of the core charge distribution:              -2435.54055198066590
  Core Hamiltonian energy:                                    680.31736940281428
  Hartree energy:                                            1031.38262737492391
  Exchange-correlation energy:                               -219.41975604383217

  Total energy:                                              -943.26031118540732

 !-----------------------------------------------------------------------------!
                     Mulliken Population Analysis

 #  Atom  Element  Kind  Atomic population                           Net charge
       1     O        1          6.659906                             -0.659906
       2     O        1          6.463349                             -0.463349
       3     O        1          6.656772                             -0.656772
       4     O        1          6.656794                             -0.656794
       5     O        1          6.494573                             -0.494573
       6     O        1          6.654690                             -0.654690
       7     O        1          6.469400                             -0.469400
       8     O        1          6.489368                             -0.489368
       9     O        1          6.502448                             -0.502448
      10     O        1          6.543823                             -0.543823
      11     O        1          6.514463                             -0.514463
      12     O        1          6.502299                             -0.502299
      13     O        1          6.538276                             -0.538276
      14     Si       2          3.048693                              0.951307
      15     Si       2          2.999697                              1.000303
      16     Si       2          3.041727                              0.958273
      17     Si       2          3.053999                              0.946001
      18     Si       2          3.095552                              0.904448
      19     Si       2          3.052317                              0.947683
      20     H        3          0.812486                              0.187514
      21     H        3          0.825799                              0.174201
      22     O        1          6.514832                             -0.514832
      23     O        1          6.530822                             -0.530822
      24     Al       4          1.673274                              1.326726
      25     Al       4          1.736694                              1.263306
      26     O        1          6.664578                             -0.664578
      27     O        1          6.655587                             -0.655587
      28     O        1          6.658041                             -0.658041
      29     O        1          6.649956                             -0.649956
      30     O        1          6.658900                             -0.658900
      31     O        1          6.647931                             -0.647931
      32     O        1          6.654805                             -0.654805
      33     O        1          6.654976                             -0.654976
      34     O        1          6.511603                             -0.511603
      35     O        1          6.509005                             -0.509005
      36     O        1          6.533112                             -0.533112
      37     O        1          6.490250                             -0.490250
      38     O        1          6.504547                             -0.504547
      39     O        1          6.578901                             -0.578901
      40     O        1          6.494180                             -0.494180
      41     O        1          6.510325                             -0.510325
      42     O        1          6.571142                             -0.571142
      43     O        1          6.515713                             -0.515713
      44     O        1          6.510850                             -0.510850
      45     O        1          6.538104                             -0.538104
      46     Si       2          3.049231                              0.950769
      47     Si       2          3.068752                              0.931248
      48     Si       2          3.039819                              0.960181
      49     Si       2          3.064974                              0.935026
      50     Si       2          3.038472                              0.961528
      51     Si       2          3.067099                              0.932901
      52     Si       2          3.064210                              0.935790
      53     Si       2          3.063452                              0.936548
      54     H        3          0.825438                              0.174562
      55     H        3          0.811452                              0.188548
      56     H        3          0.810551                              0.189449
      57     H        3          0.829036                              0.170964
      58     O        1          6.519558                             -0.519558
      59     O        1          6.527467                             -0.527467
      60     O        1          6.526815                             -0.526815
      61     O        1          6.519866                             -0.519866
      62     Al       4          1.670024                              1.329976
      63     Al       4          1.661412                              1.338588
      64     Al       4          1.655805                              1.344195
      65     Al       4          1.687815                              1.312185
      66     O        1          6.676019                             -0.676019
      67     O        1          6.657486                             -0.657486
      68     O        1          6.390384                             -0.390384
      69     O        1          6.499949                             -0.499949
      70     O        1          6.511978                             -0.511978
      71     O        1          6.479418                             -0.479418
      72     O        1          6.573886                             -0.573886
      73     Si       2          3.105399                              0.894601
      74     Si       2          3.080553                              0.919447
      75     H        3          0.818935                              0.181065
      76     H        3          0.804902                              0.195098
      77     O        1          6.498296                             -0.498296
      78     O        1          6.529137                             -0.529137
      79     Al       4          1.670498                              1.329502
      80     Al       4          1.699713                              1.300287
      81     O        1          6.420073                             -0.420073
      82     O        1          6.448320                             -0.448320
      83     O        1          6.555171                             -0.555171
      84     O        1          6.507212                             -0.507212
      85     O        1          6.485693                             -0.485693
      86     H        3          0.817679                              0.182321
      87     H        3          0.825353                              0.174647
      88     H        3          0.823903                              0.176097
      89     H        3          0.812644                              0.187356
      90     H        3          0.793751                              0.206249
      91     H        3          0.781532                              0.218468
      92     H        3          0.809722                              0.190278
      93     H        3          0.777631                              0.222369
      94     H        3          0.785189                              0.214811
      95     H        3          0.813767                              0.186233
 # Total charge                            424.000000                 -0.000000

 !-----------------------------------------------------------------------------!

 !-----------------------------------------------------------------------------!
                           Hirshfeld Charges

  #Atom  Element  Kind  Ref Charge     Population                    Net charge
      1       O      1       6.000          6.294                        -0.294
      2       O      1       6.000          6.210                        -0.210
      3       O      1       6.000          6.294                        -0.294
      4       O      1       6.000          6.304                        -0.304
      5       O      1       6.000          6.222                        -0.222
      6       O      1       6.000          6.294                        -0.294
      7       O      1       6.000          6.259                        -0.259
      8       O      1       6.000          6.266                        -0.266
      9       O      1       6.000          6.276                        -0.276
     10       O      1       6.000          6.287                        -0.287
     11       O      1       6.000          6.278                        -0.278
     12       O      1       6.000          6.284                        -0.284
     13       O      1       6.000          6.252                        -0.252
     14       Si     2       4.000          3.446                         0.554
     15       Si     2       4.000          3.434                         0.566
     16       Si     2       4.000          3.446                         0.554
     17       Si     2       4.000          3.457                         0.543
     18       Si     2       4.000          3.470                         0.530
     19       Si     2       4.000          3.441                         0.559
     20       H      3       1.000          0.875                         0.125
     21       H      3       1.000          0.900                         0.100
     22       O      1       6.000          6.287                        -0.287
     23       O      1       6.000          6.303                        -0.303
     24       Al     4       3.000          2.568                         0.432
     25       Al     4       3.000          2.567                         0.433
     26       O      1       6.000          6.293                        -0.293
     27       O      1       6.000          6.292                        -0.292
     28       O      1       6.000          6.293                        -0.293
     29       O      1       6.000          6.296                        -0.296
     30       O      1       6.000          6.294                        -0.294
     31       O      1       6.000          6.295                        -0.295
     32       O      1       6.000          6.292                        -0.292
     33       O      1       6.000          6.294                        -0.294
     34       O      1       6.000          6.276                        -0.276
     35       O      1       6.000          6.271                        -0.271
     36       O      1       6.000          6.248                        -0.248
     37       O      1       6.000          6.261                        -0.261
     38       O      1       6.000          6.274                        -0.274
     39       O      1       6.000          6.257                        -0.257
     40       O      1       6.000          6.263                        -0.263
     41       O      1       6.000          6.274                        -0.274
     42       O      1       6.000          6.259                        -0.259
     43       O      1       6.000          6.278                        -0.278
     44       O      1       6.000          6.272                        -0.272
     45       O      1       6.000          6.253                        -0.253
     46       Si     2       4.000          3.450                         0.550
     47       Si     2       4.000          3.446                         0.554
     48       Si     2       4.000          3.443                         0.557
     49       Si     2       4.000          3.445                         0.555
     50       Si     2       4.000          3.449                         0.551
     51       Si     2       4.000          3.449                         0.551
     52       Si     2       4.000          3.451                         0.549
     53       Si     2       4.000          3.445                         0.555
     54       H      3       1.000          0.876                         0.124
     55       H      3       1.000          0.874                         0.126
     56       H      3       1.000          0.876                         0.124
     57       H      3       1.000          0.877                         0.123
     58       O      1       6.000          6.285                        -0.285
     59       O      1       6.000          6.284                        -0.284
     60       O      1       6.000          6.284                        -0.284
     61       O      1       6.000          6.284                        -0.284
     62       Al     4       3.000          2.566                         0.434
     63       Al     4       3.000          2.567                         0.433
     64       Al     4       3.000          2.566                         0.434
     65       Al     4       3.000          2.575                         0.425
     66       O      1       6.000          6.306                        -0.306
     67       O      1       6.000          6.299                        -0.299
     68       O      1       6.000          6.282                        -0.282
     69       O      1       6.000          6.282                        -0.282
     70       O      1       6.000          6.271                        -0.271
     71       O      1       6.000          6.308                        -0.308
     72       O      1       6.000          6.264                        -0.264
     73       Si     2       4.000          3.479                         0.521
     74       Si     2       4.000          3.470                         0.530
     75       H      3       1.000          0.869                         0.131
     76       H      3       1.000          0.842                         0.158
     77       O      1       6.000          6.269                        -0.269
     78       O      1       6.000          6.273                        -0.273
     79       Al     4       3.000          2.567                         0.433
     80       Al     4       3.000          2.568                         0.432
     81       O      1       6.000          6.277                        -0.277
     82       O      1       6.000          6.225                        -0.225
     83       O      1       6.000          6.297                        -0.297
     84       O      1       6.000          6.262                        -0.262
     85       O      1       6.000          6.248                        -0.248
     86       H      3       1.000          0.917                         0.083
     87       H      3       1.000          0.845                         0.155
     88       H      3       1.000          0.849                         0.151
     89       H      3       1.000          0.916                         0.084
     90       H      3       1.000          0.809                         0.191
     91       H      3       1.000          0.822                         0.178
     92       H      3       1.000          0.893                         0.107
     93       H      3       1.000          0.815                         0.185
     94       H      3       1.000          0.825                         0.175
     95       H      3       1.000          0.912                         0.088

  Total Charge                                                           -0.000
 !-----------------------------------------------------------------------------!

 ENERGY| Total FORCE_EVAL ( QS ) energy [hartree]           -943.260311185407318

 -------------------------------------------------------------------------------
 -                                                                             -
 -                                DBCSR STATISTICS                             -
 -                                                                             -
 -------------------------------------------------------------------------------
 COUNTER                                    TOTAL       BLAS       SMM       ACC
 flops     5 x    20 x    20               144000       0.0%    100.0%      0.0%     
 flops     5 x    32 x    20               691200       0.0%    100.0%      0.0%     
 flops     5 x    20 x    32               691200       0.0%    100.0%      0.0%     
 flops    20 x    20 x  1091               872800       0.0%    100.0%      0.0%     
 flops    13 x    20 x    20              1601600       0.0%    100.0%      0.0%     
 flops    20 x    32 x  1091              4189440       0.0%    100.0%      0.0%     
 flops    32 x    20 x  1091              4189440       0.0%    100.0%      0.0%     
 flops    13 x    32 x    20              7687680       0.0%    100.0%      0.0%     
 flops    13 x    20 x    32              7687680       0.0%    100.0%      0.0%     
 flops     5 x    32 x    32              7741440       0.0%    100.0%      0.0%     
 flops     5 x    20 x     5             43456000       0.0%    100.0%      0.0%     
 flops    32 x    32 x  1091             46921728       0.0%    100.0%      0.0%     
 flops    13 x    32 x    32             86102016       0.0%    100.0%      0.0%     
 flops     5 x     5 x   212            123659600       0.0%    100.0%      0.0%     
 flops     5 x    32 x     5            417177600       0.0%    100.0%      0.0%     
 flops     5 x    20 x    13            453455600       0.0%    100.0%      0.0%     
 flops    13 x    20 x     5            453455600       0.0%    100.0%      0.0%     
 flops     5 x    13 x   212           1186816280       0.0%    100.0%      0.0%     
 flops    13 x     5 x   212           1205143680       0.0%    100.0%      0.0%     
 flops     5 x    32 x    13           4353173760       0.0%    100.0%      0.0%     
 flops    13 x    32 x     5           4353173760       0.0%    100.0%      0.0%     
 flops    13 x    20 x    13           5532965360       0.0%    100.0%      0.0%     
 flops    13 x    13 x   212          14837306328       0.0%    100.0%      0.0%     
 flops   212 x   212 x   212          16007255040       0.0%    100.0%      0.0%     
 flops   212 x   212 x  1091          36775428000       0.0%    100.0%      0.0%     
 flops  1091 x   212 x   212          45895734144       0.0%    100.0%      0.0%     
 flops  1091 x   212 x  1091          47944518680       0.0%    100.0%      0.0%     
 flops    13 x    32 x    13          53116467456       0.0%    100.0%      0.0%     
 flops inhomo. stacks                           0       0.0%      0.0%      0.0%
 flops total                       232.867707E+09       0.0%    100.0%      0.0%
 flops max/rank                    232.867707E+09       0.0%    100.0%      0.0%
 matmuls inhomo. stacks                         0       0.0%      0.0%      0.0%
 matmuls total                            8787924       0.0%    100.0%      0.0%
 number of processed stacks                 12267       0.0%    100.0%      0.0%
 average stack size                                     0.0     716.4       0.0
 marketing flops                   293.374165E+09
 -------------------------------------------------------------------------------
 # multiplications                           2072
 max memory usage/rank               2.319815E+09
 # max total images/rank                        1
 # max 3D layers                                1
 # MPI messages exchanged                       0
 -------------------------------------------------------------------------------
 -                                                                             -
 -                      DBCSR MESSAGE PASSING PERFORMANCE                      -
 -                                                                             -
 -------------------------------------------------------------------------------
 ROUTINE             CALLS      AVE VOLUME [Bytes]
 MP_Bcast               29                     12.
 MP_Allreduce        11337                     22.
 MP_Alltoall          6814                 128502.
 MP_ISend             8284                  15963.
 MP_IRecv             8284                  15963.
 -------------------------------------------------------------------------------

 -------------------------------------------------------------------------------
 -                                                                             -
 -                                DBM STATISTICS                               -
 -                                                                             -
 -------------------------------------------------------------------------------
    M  x    N  x    K                                          COUNT     PERCENT
 -------------------------------------------------------------------------------

 -------------------------------------------------------------------------------
 -                                                                             -
 -                                GRID STATISTICS                              -
 -                                                                             -
 -------------------------------------------------------------------------------
 LP    KERNEL             BACKEND                              COUNT     PERCENT
 4     collocate ortho    CPU                                3923690      33.44%
 4     integrate ortho    CPU                                3882388      33.09%
 3     collocate ortho    CPU                                1687010      14.38%
 3     integrate ortho    CPU                                1669252      14.23%
 2     collocate ortho    CPU                                 285950       2.44%
 2     integrate ortho    CPU                                 282940       2.41%
 0     collocate general  CPU                                    855       0.01%
 0     integrate general  CPU                                    760       0.01%
 -------------------------------------------------------------------------------

 MEMORY| Estimated peak process memory [MiB]                                2201

 -------------------------------------------------------------------------------
 -                                                                             -
 -                         MESSAGE PASSING PERFORMANCE                         -
 -                                                                             -
 -------------------------------------------------------------------------------

 ROUTINE             CALLS      AVE VOLUME [Bytes]
 MP_Group                4
 MP_Bcast             6657                   1218.
 MP_Allreduce        17015                   1036.
 MP_Sync                98
 -------------------------------------------------------------------------------


 -------------------------------------------------------------------------------
 -                                                                             -
 -                           R E F E R E N C E S                               -
 -                                                                             -
 -------------------------------------------------------------------------------
 
 CP2K version 2025.1, the CP2K developers group (2025).
 CP2K is freely available from https://www.cp2k.org/ .
 
 T. D. Kuehne, M. Iannuzzi, M. Del Ben, V. V. Rybkin, P. Seewald, F. Stein, T. 
 Laino, R. Z. Khaliullin, O. Schuett, F. Schiffmann, D. Golze, J. Wilhelm, S. 
 Chulkov, M. H. Bani-Hashemian, V. Weber, U. Borstnik, M. Taillefumier, A. S. 
 Jakobovits, A. Lazzaro, H. Pabst, T. Mueller, R. Schade, M. Guidon, S. 
 Andermatt, N. Holmberg, G. K. Schenter, A. Hehn, A. Bussy, F. Belleflamme, G. 
 Tabacchi, A. Gloess, M. Lass, I. Bethune, C. J. Mundy, C. Plessl, M. Watkins, 
 J. VandeVondele, M. Krack, J. Hutter.
 J. Chem. Phys. 152, 194103 (2020).
 CP2K: An electronic structure and molecular dynamics software package - 
 Quickstep: Efficient and accurate electronic structure calculations.
 https://doi.org/10.1063/5.0007045

 O. Schuett, P. Messmer, J. Hutter, J. VandeVondele.
 Electronic Structure Calculations on Graphics Processing Units, 173-190 (2016).
 GPU-Accelerated Sparse Matrix-Matrix Multiplication for Linear Scaling Density 
 Functional Theory.
 https://doi.org/10.1002/9781118670712.ch8

 A. Heinecke, G. Henry, M. Hutchinson, H. Pabst.
 Proceedings of Intl. Supercomputing Conference, 981-991 (2016).
 LIBXSMM: Accelerating Small Matrix Multiplications by Runtime Code Generation.
 https://doi.org/10.1109/SC.2016.83

 J. Hutter, M. Iannuzzi, F. Schiffmann, J. VandeVondele.
 WIREs Comput Mol Sci. 4, 15-25 (2014).
 CP2K: atomistic simulations of condensed matter systems.
 https://doi.org/10.1002/wcms.1159

 U. Borstnik, J. VandeVondele, V. Weber, J. Hutter.
 Parallel Comput. 40, 47-58 (2014).
 Sparse matrix multiplication: The distributed block-compressed sparse row 
 library.
 https://doi.org/10.1016/j.parco.2014.03.012

 A. Marek, V. Blum, R. Johanni, V. Havu, B. Lang, T. Auckenthaler, A. Heinecke, 
 H. Bungartz, H. Lederer.
 J. Phys. Condens. Matter 26, 213201 (2014).
 The ELPA library: scalable parallel eigenvalue solutions for electronic 
 structure theory and computational science.
 https://doi.org/10.1088/0953-8984/26/21/213201

 J. VandeVondele, J. Hutter.
 J. Chem. Phys. 127, 114105 (2007).
 Gaussian basis sets for accurate calculations on molecular systems in gas and 
 condensed phases.
 https://doi.org/10.1063/1.2770708

 J. VandeVondele, M. Krack, F. Mohamed, M. Parrinello, T. Chassaing, J. Hutter.
 Comput. Phys. Commun. 167, 103-128 (2005).
 QUICKSTEP: Fast and accurate density functional calculations using a mixed 
 Gaussian and plane waves approach.
 https://doi.org/10.1016/j.cpc.2004.12.014

 M. Krack.
 Theor. Chem. Acc. 114, 145-152 (2005).
 Pseudopotentials for H to Kr optimized for gradient-corrected 
 exchange-correlation functionals.
 https://doi.org/10.1007/s00214-005-0655-y

 M. Frigo, S. G. Johnson.
 Proc. IEEE 93, 216-231 (2005).
 The design and implementation of FFTW3.
 https://doi.org/10.1109/JPROC.2004.840301

 J. VandeVondele, J. Hutter.
 J. Chem. Phys. 118, 4365-4369 (2003).
 An efficient orbital transformation method for electronic structure 
 calculations.
 https://doi.org/10.1063/1.1543154

 C. Hartwigsen, S. Goedecker, J. Hutter.
 Phys. Rev. B 58, 3641-3662 (1998).
 Relativistic separable dual-space Gaussian pseudopotentials from H to Rn.
 https://doi.org/10.1103/PhysRevB.58.3641

 G. Lippert, J. Hutter, M. Parrinello.
 Mol. Phys. 92, 477-487 (1997).
 A hybrid Gaussian and plane wave density functional scheme.
 https://doi.org/10.1080/002689797170220

 S. Goedecker, M. Teter, J. Hutter.
 Phys. Rev. B 54, 1703-1710 (1996).
 Separable dual-space Gaussian pseudopotentials.
 https://doi.org/10.1103/PhysRevB.54.1703

 J. P. Perdew, K. Burke, M. Ernzerhof.
 Phys. Rev. Lett. 77, 3865-3868 (1996).
 Generalized gradient approximation made simple.
 https://doi.org/10.1103/PhysRevLett.77.3865


 -------------------------------------------------------------------------------
 -                                                                             -
 -                                T I M I N G                                  -
 -                                                                             -
 -------------------------------------------------------------------------------
 SUBROUTINE                       CALLS  ASD         SELF TIME        TOTAL TIME
                                MAXIMUM       AVERAGE  MAXIMUM  AVERAGE  MAXIMUM
 CP2K                                 1  1.0    0.146    0.146 1155.746 1155.746
 qs_energies                          1  2.0    0.000    0.000 1153.597 1153.597
 scf_env_do_scf                       1  3.0    0.000    0.000 1143.165 1143.165
 scf_env_do_scf_inner_loop           94  4.0    0.011    0.011 1133.776 1133.776
 qs_ks_update_qs_env                 95  5.0    0.001    0.001  811.363  811.363
 rebuild_ks_matrix                   94  6.0    0.000    0.000  811.191  811.191
 qs_ks_build_kohn_sham_matrix        94  7.0    0.012    0.012  811.190  811.190
 fft_wrap_pw1pw2                   1604 10.3    0.020    0.020  478.272  478.272
 fft_wrap_pw1pw2_200               1037 11.7   11.988   11.988  469.807  469.807
 qs_vxc_create                       94  8.0    0.002    0.002  453.184  453.184
 xc_vxc_pw_create                    94  9.0   28.139   28.139  453.183  453.183
 qs_rho_update_rho_low               95  5.0    0.001    0.001  318.706  318.706
 calculate_rho_elec                  95  6.0    3.331    3.331  318.705  318.705
 fft3d_s                           1605 12.3  315.281  315.281  315.310  315.310
 sum_up_and_integrate                94  8.0    0.002    0.002  284.311  284.311
 xc_pw_derive                       564 11.0    0.004    0.004  280.508  280.508
 integrate_v_rspace                  94  9.0    0.099    0.099  266.347  266.347
 grid_collocate_task_list            95  7.0  220.629  220.629  220.629  220.629
 grid_integrate_task_list            94 10.0  216.063  216.063  216.063  216.063
 xc_rho_set_and_dset_create          94 10.0   19.707   19.707  213.673  213.673
 xc_pw_divergence                    94 10.0    0.002    0.002  198.473  198.473
 density_rs2pw                       95  7.0    0.005    0.005   94.745   94.745
 pw_scatter_s                       847 12.7   62.698   62.698   62.698   62.698
 potential_pw2rs                     94 10.0    0.091    0.091   50.184   50.184
 xc_functional_eval                  94 11.0    0.001    0.001   49.134   49.134
 pbe_lda_eval                        94 12.0   49.133   49.133   49.133   49.133
 pw_gather_s                        757 11.9   40.834   40.834   40.834   40.834
 pw_axpy                            944  9.3   39.310   39.310   39.310   39.310
 pw_derive                          846 11.3   27.657   27.657   27.657   27.657
 pw_copy_from_array                 847 12.7   25.002   25.002   25.002   25.002
 -------------------------------------------------------------------------------

 The number of warnings for this run is : 0
 
 -------------------------------------------------------------------------------
  **** **** ******  **  PROGRAM ENDED AT                 2026-10-08 08:49:13.335
 ***** ** ***  *** **   PROGRAM RAN ON                                    r6i5n2
 **    ****   ******    PROGRAM RAN BY                                   a266017
 ***** **    ** ** **   PROGRAM PROCESS ID                                977402
  **** **  *******  **  PROGRAM STOPPED IN /home/g7/a266017/VASP/cp2k/runs/rib_y
                                           _o37_al
