 DBCSR| CPU Multiplication driver                                           XSMM (U)
 DBCSR| Multrec recursion limit                                              512 (U)
 DBCSR| Multiplication stack size                                           1000 (D)
 DBCSR| Maximum elements for images                                    UNLIMITED (U)
 DBCSR| Multiplicative factor virtual images                                   1 (U)
 DBCSR| Use multiplication densification                                       T (D)
 DBCSR| Multiplication size stacks                                             3 (U)
 DBCSR| Use memory pool for CPU allocation                                     F (U)
 DBCSR| Number of 3D layers                                               SINGLE (U)
 DBCSR| Use MPI memory allocation                                              F (U)
 DBCSR| Use RMA algorithm                                                      F (U)
 DBCSR| Use Communication thread                                               T (U)
 DBCSR| Communication thread load                                             87 (D)
 DBCSR| MPI: My process id                                                     0
 DBCSR| MPI: Number of processes                                               1
 DBCSR| OMP: Current number of threads                                         1
 DBCSR| OMP: Max number of threads                                             1
 DBCSR| Split modifier for TAS multiplication algorithm                  1.0E+00 (U)


  **** **** ******  **  PROGRAM STARTED AT               2026-10-07 16:51:37.901
 ***** ** ***  *** **   PROGRAM STARTED ON                                r6i5n2
 **    ****   ******    PROGRAM STARTED BY                               a266017
 ***** **    ** ** **   PROGRAM PROCESS ID                                972803
  **** **  *******  **  PROGRAM STARTED IN  /home/g7/a266017/VASP/cp2k/runs/bulk

 CP2K| version string:                                       CP2K version 2025.1
 CP2K| source code revision number:                                  git:9635df4
 CP2K| cp2kflags: omp libint fftw3 libxc libgrpp elpa parallel scalapack mpi_f08
 CP2K|             cosma xsmm plumed2 spglib mkl sirius libvori libbqb libvdwxc
 CP2K|             hdf5
 CP2K| is freely available from                            https://www.cp2k.org/
 CP2K| Program compiled at                          Fri Mar 13 14:45:02 JST 2026
 CP2K| Program compiled on                            s86fs1.tokai-sc.jaea.go.jp
 CP2K| Program compiled for                                                local
 CP2K| Data directory path                                                 /data
 CP2K| Input file name                                                   opt.inp
 
 GLOBAL| Force Environment number                                              1
 GLOBAL| Basis set file name                                        BASIS_MOLOPT
 GLOBAL| Potential file name                                      GTH_POTENTIALS
 GLOBAL| MM Potential file name                                     MM_POTENTIAL
 GLOBAL| Coordinate file name                                          start.xyz
 GLOBAL| Method name                                                        CP2K
 GLOBAL| Project name                                                        opt
 GLOBAL| Run type                                                        GEO_OPT
 GLOBAL| FFT library                                                       FFTW3
 GLOBAL| Diagonalization library                                            ELPA
 GLOBAL| DGEMM library                                                      BLAS
 GLOBAL| Minimum number of eigenvectors for ELPA usage                        16
 GLOBAL| Orthonormality check for eigenvectors                          DISABLED
 GLOBAL| Matrix multiplication library                                     COSMA
 GLOBAL| All-to-all communication in single precision                          F
 GLOBAL| FFTs using library dependent lengths                                  F
 GLOBAL| Grid backend                                                       AUTO
 GLOBAL| Global print level                                                  LOW
 GLOBAL| MPI I/O enabled                                                       T
 GLOBAL| Total number of message passing processes                             1
 GLOBAL| Number of threads for this process                                    1
 GLOBAL| This output is from process                                           0
 GLOBAL| OpenMP stack size per thread (OMP_STACKSIZE)                    default
 GLOBAL| CPU model name                Intel(R) Xeon(R) Gold 6242R CPU @ 3.10GHz
 GLOBAL| CPUID                                                              1003

 MEMORY| system memory details [Kb]
 MEMORY|                        rank 0           min           max       average
 MEMORY| MemTotal            196248260     196248260     196248260     196248260
 MEMORY| MemFree             181954120     181954120     181954120     181954120
 MEMORY| Buffers                     0             0             0             0
 MEMORY| Cached                9598040       9598040       9598040       9598040
 MEMORY| Slab                  1397532       1397532       1397532       1397532
 MEMORY| SReclaimable           246400        246400        246400        246400
 MEMORY| MemLikelyFree       191798560     191798560     191798560     191798560

 
 GENERATE|  Preliminary Number of Bonds generated:                             0
 GENERATE|  Achieved consistency in connectivity generation.

 *******************************************************************************
 *   ___                                                                       *
 *  /   \                                                                      *
 * [ABORT]                                                                     *
 *  \___/  The specified OLD file <BASIS_MOLOPT> cannot be opened. It does not *
 *    |                      exist. Data directory path: /data                 *
 *  O/|                                                                        *
 * /| |                                                                        *
 * / \                                                   common/cp_files.F:403 *
 *******************************************************************************


 ===== Routine Calling Stack ===== 

            3 read_qs_kind
            2 create_qs_kind_set
            1 CP2K
 DBCSR| CPU Multiplication driver                                           XSMM (U)
 DBCSR| Multrec recursion limit                                              512 (U)
 DBCSR| Multiplication stack size                                           1000 (D)
 DBCSR| Maximum elements for images                                    UNLIMITED (U)
 DBCSR| Multiplicative factor virtual images                                   1 (U)
 DBCSR| Use multiplication densification                                       T (D)
 DBCSR| Multiplication size stacks                                             3 (U)
 DBCSR| Use memory pool for CPU allocation                                     F (U)
 DBCSR| Number of 3D layers                                               SINGLE (U)
 DBCSR| Use MPI memory allocation                                              F (U)
 DBCSR| Use RMA algorithm                                                      F (U)
 DBCSR| Use Communication thread                                               T (U)
 DBCSR| Communication thread load                                             87 (D)
 DBCSR| MPI: My process id                                                     0
 DBCSR| MPI: Number of processes                                               1
 DBCSR| OMP: Current number of threads                                         1
 DBCSR| OMP: Max number of threads                                             1
 DBCSR| Split modifier for TAS multiplication algorithm                  1.0E+00 (U)


  **** **** ******  **  PROGRAM STARTED AT               2026-10-07 16:53:38.997
 ***** ** ***  *** **   PROGRAM STARTED ON                                r6i5n2
 **    ****   ******    PROGRAM STARTED BY                               a266017
 ***** **    ** ** **   PROGRAM PROCESS ID                                974215
  **** **  *******  **  PROGRAM STARTED IN  /home/g7/a266017/VASP/cp2k/runs/bulk

 CP2K| version string:                                       CP2K version 2025.1
 CP2K| source code revision number:                                  git:9635df4
 CP2K| cp2kflags: omp libint fftw3 libxc libgrpp elpa parallel scalapack mpi_f08
 CP2K|             cosma xsmm plumed2 spglib mkl sirius libvori libbqb libvdwxc
 CP2K|             hdf5
 CP2K| is freely available from                            https://www.cp2k.org/
 CP2K| Program compiled at                          Fri Mar 13 14:45:02 JST 2026
 CP2K| Program compiled on                            s86fs1.tokai-sc.jaea.go.jp
 CP2K| Program compiled for                                                local
 CP2K| Data directory path                /home/center/app/CP2K/cp2k-2025.1/data
 CP2K| Input file name                                                   opt.inp
 
 GLOBAL| Force Environment number                                              1
 GLOBAL| Basis set file name                                        BASIS_MOLOPT
 GLOBAL| Potential file name                                      GTH_POTENTIALS
 GLOBAL| MM Potential file name                                     MM_POTENTIAL
 GLOBAL| Coordinate file name                                          start.xyz
 GLOBAL| Method name                                                        CP2K
 GLOBAL| Project name                                                        opt
 GLOBAL| Run type                                                        GEO_OPT
 GLOBAL| FFT library                                                       FFTW3
 GLOBAL| Diagonalization library                                            ELPA
 GLOBAL| DGEMM library                                                      BLAS
 GLOBAL| Minimum number of eigenvectors for ELPA usage                        16
 GLOBAL| Orthonormality check for eigenvectors                          DISABLED
 GLOBAL| Matrix multiplication library                                     COSMA
 GLOBAL| All-to-all communication in single precision                          F
 GLOBAL| FFTs using library dependent lengths                                  F
 GLOBAL| Grid backend                                                       AUTO
 GLOBAL| Global print level                                                  LOW
 GLOBAL| MPI I/O enabled                                                       T
 GLOBAL| Total number of message passing processes                             1
 GLOBAL| Number of threads for this process                                    1
 GLOBAL| This output is from process                                           0
 GLOBAL| OpenMP stack size per thread (OMP_STACKSIZE)                    default
 GLOBAL| CPU model name                Intel(R) Xeon(R) Gold 6242R CPU @ 3.10GHz
 GLOBAL| CPUID                                                              1003

 MEMORY| system memory details [Kb]
 MEMORY|                        rank 0           min           max       average
 MEMORY| MemTotal            196248260     196248260     196248260     196248260
 MEMORY| MemFree             181961632     181961632     181961632     181961632
 MEMORY| Buffers                     0             0             0             0
 MEMORY| Cached                9589136       9589136       9589136       9589136
 MEMORY| Slab                  1396692       1396692       1396692       1396692
 MEMORY| SReclaimable           244792        244792        244792        244792
 MEMORY| MemLikelyFree       191795560     191795560     191795560     191795560

 
 GENERATE|  Preliminary Number of Bonds generated:                             0
 GENERATE|  Achieved consistency in connectivity generation.

 *******************************************************************************
 *******************************************************************************
 **                                                                           **
 **     #####                         ##              ##                      **
 **    ##   ##            ##          ##              ##                      **
 **   ##     ##                       ##            ######                    **
 **   ##     ##  ##   ##  ##   #####  ##  ##   ####   ##    #####    #####    **
 **   ##     ##  ##   ##  ##  ##      ## ##   ##      ##   ##   ##  ##   ##   **
 **   ##  ## ##  ##   ##  ##  ##      ####     ###    ##   ######   ######    **
 **    ##  ###   ##   ##  ##  ##      ## ##      ##   ##   ##       ##        **
 **     #######   #####   ##   #####  ##  ##  ####    ##    #####   ##        **
 **           ##                                                    ##        **
 **                                                                           **
 **                                                ... make the atoms dance   **
 **                                                                           **
 **            Copyright (C) by CP2K developers group (2000-2025)             **
 **                      J. Chem. Phys. 152, 194103 (2020)                    **
 **                                                                           **
 *******************************************************************************


 TOTAL NUMBERS AND MAXIMUM NUMBERS

  Total number of            - Atomic kinds:                                   4
                             - Atoms:                                         40
                             - Shell sets:                                    40
                             - Shells:                                        76
                             - Primitive Cartesian functions:                188
                             - Cartesian basis functions:                    148
                             - Spherical basis functions:                    148

  Maximum angular momentum of- Orbital basis functions:                        1
                             - Local part of the GTH pseudopotential:          2
                             - Non-local part of the GTH pseudopotential:      2


 SCF PARAMETERS         Density guess:                                    ATOMIC
                        --------------------------------------------------------
                        max_scf:                                             200
                        max_scf_history:                                       0
                        max_diis:                                              4
                        --------------------------------------------------------
                        eps_scf:                                        1.00E-05
                        eps_scf_history:                                0.00E+00
                        eps_diis:                                       1.00E-01
                        eps_eigval:                                     1.00E-05
                        --------------------------------------------------------
                        level_shift [a.u.]:                             0.000000
                        --------------------------------------------------------
                        No outer SCF

 *******************************************************************************
 ***                     STARTING GEOMETRY OPTIMIZATION                      ***
 ***                                 L-BFGS                                  ***
 *******************************************************************************

 --------------------------
 OPTIMIZATION STEP:      1
 --------------------------

 Number of electrons:                                                        192
 Number of occupied orbitals:                                                 96
 Number of molecular orbitals:                                                96

 Number of orbital functions:                                                148
 Number of independent orbital functions:                                    148

 Extrapolation method: initial_guess


 SCF WAVEFUNCTION OPTIMIZATION

  ----------------------------------- OT ---------------------------------------
  Minimizer      : DIIS                : direct inversion
                                         in the iterative subspace
                                         using   7 DIIS vectors
                                         safer DIIS on
  Preconditioner : FULL_SINGLE_INVERSE : inversion of 
                                         H + eS - 2*(Sc)(c^T*H*c+const)(Sc)^T
  Precond_solver : DEFAULT
  stepsize       :    0.08000000                  energy_gap     :    0.08000000
  eps_taylor     :   0.10000E-15                  max_taylor     :             4
  ----------------------------------- OT ---------------------------------------

  Step     Update method      Time    Convergence         Total energy    Change
  ------------------------------------------------------------------------------
     1 OT DIIS     0.80E-01    2.2     0.07109886      -415.4857862563 -4.15E+02
     2 OT DIIS     0.80E-01    1.4     0.05198867      -419.4653714039 -3.98E+00
     3 OT DIIS     0.80E-01    1.4     0.04150400      -421.5239568179 -2.06E+00
     4 OT DIIS     0.80E-01    1.4     0.02913333      -423.6082521259 -2.08E+00
     5 OT DIIS     0.80E-01    1.4     0.01933467      -424.6703641446 -1.06E+00
     6 OT DIIS     0.80E-01    1.4     0.01473863      -425.1478117377 -4.77E-01
     7 OT DIIS     0.80E-01    1.4     0.01542612      -425.3957564431 -2.48E-01
     8 OT SD       0.80E-01    1.4     0.01564315      -425.4319087722 -3.62E-02
     9 OT SD       0.80E-01    1.4     0.01441221      -425.6995387891 -2.68E-01
    10 OT SD       0.80E-01    1.4     0.01059891      -425.9044374379 -2.05E-01
    11 OT DIIS     0.80E-01    1.4     0.00730305      -426.0110643167 -1.07E-01
    12 OT DIIS     0.80E-01    1.4     0.00975826      -426.0307343298 -1.97E-02
    13 OT DIIS     0.80E-01    1.4     0.01091454      -426.0344366093 -3.70E-03
    14 OT DIIS     0.80E-01    1.4     0.01110079      -426.0385062704 -4.07E-03
    15 OT DIIS     0.80E-01    1.4     0.00562603      -426.0871744023 -4.87E-02
    16 OT DIIS     0.80E-01    1.4     0.00282601      -426.1201544531 -3.30E-02
    17 OT DIIS     0.80E-01    1.4     0.00243390      -426.1354839845 -1.53E-02
    18 OT DIIS     0.80E-01    1.4     0.00154997      -426.1490784216 -1.36E-02
    19 OT DIIS     0.80E-01    1.4     0.00135226      -426.1551638590 -6.09E-03
    20 OT DIIS     0.80E-01    1.4     0.00085660      -426.1604342968 -5.27E-03
    21 OT DIIS     0.80E-01    1.4     0.00059504      -426.1633522410 -2.92E-03
    22 OT DIIS     0.80E-01    1.4     0.00041827      -426.1647540191 -1.40E-03
    23 OT DIIS     0.80E-01    1.4     0.00030063      -426.1654821669 -7.28E-04
    24 OT DIIS     0.80E-01    1.4     0.00023036      -426.1658152253 -3.33E-04
    25 OT DIIS     0.80E-01    1.4     0.00017947      -426.1660195886 -2.04E-04
    26 OT DIIS     0.80E-01    1.4     0.00013835      -426.1661621083 -1.43E-04
    27 OT DIIS     0.80E-01    1.4     0.00011427      -426.1662322107 -7.01E-05
    28 OT DIIS     0.80E-01    1.4     0.00008982      -426.1662845938 -5.24E-05
    29 OT DIIS     0.80E-01    1.4     0.00007343      -426.1663176247 -3.30E-05
    30 OT DIIS     0.80E-01    1.4     0.00006373      -426.1663376879 -2.01E-05
    31 OT DIIS     0.80E-01    1.4     0.00005606      -426.1663535624 -1.59E-05
    32 OT DIIS     0.80E-01    1.4     0.00005010      -426.1663666365 -1.31E-05
    33 OT DIIS     0.80E-01    1.4     0.00004374      -426.1663801922 -1.36E-05
    34 OT DIIS     0.80E-01    1.4     0.00003785      -426.1663917251 -1.15E-05
    35 OT DIIS     0.80E-01    1.4     0.00003262      -426.1664002934 -8.57E-06
    36 OT DIIS     0.80E-01    1.4     0.00002773      -426.1664059083 -5.61E-06
    37 OT DIIS     0.80E-01    1.4     0.00002314      -426.1664102537 -4.35E-06
    38 OT DIIS     0.80E-01    1.4     0.00001943      -426.1664129657 -2.71E-06
    39 OT DIIS     0.80E-01    1.4     0.00001641      -426.1664146648 -1.70E-06
    40 OT DIIS     0.80E-01    1.4     0.00001380      -426.1664158662 -1.20E-06
    41 OT DIIS     0.80E-01    1.4     0.00001179      -426.1664166800 -8.14E-07
    42 OT DIIS     0.80E-01    1.4     0.00001055      -426.1664171643 -4.84E-07
    43 OT DIIS     0.80E-01    1.4     0.00000970      -426.1664175139 -3.50E-07

  *** SCF run converged in    43 steps ***


  Electronic density on regular grids:       -191.9999997333        0.0000002667
  Core density on regular grids:              191.9999999878       -0.0000000122
  Total charge density on r-space grids:        0.0000002545
  Total charge density g-space grids:           0.0000002545

  Overlap energy of the core charge distribution:               0.00000040431923
  Self energy of the core charge distribution:              -1106.90238849848902
  Core Hamiltonian energy:                                    330.72772569380191
  Hartree energy:                                             453.09411134876075
  Exchange-correlation energy:                               -103.08586646224747

  Total energy:                                              -426.16641751385458

 ENERGY| Total FORCE_EVAL ( QS ) energy [hartree]           -426.166417771297859

 Number of electrons:                                                        192
 Number of occupied orbitals:                                                 96
 Number of molecular orbitals:                                                96

 Number of orbital functions:                                                148
 Number of independent orbital functions:                                    148

 Extrapolation method: ASPC


 SCF WAVEFUNCTION OPTIMIZATION

  ----------------------------------- OT ---------------------------------------
  Minimizer      : DIIS                : direct inversion
                                         in the iterative subspace
                                         using   7 DIIS vectors
                                         safer DIIS on
  Preconditioner : FULL_SINGLE_INVERSE : inversion of 
                                         H + eS - 2*(Sc)(c^T*H*c+const)(Sc)^T
  Precond_solver : DEFAULT
  stepsize       :    0.08000000                  energy_gap     :    0.08000000
  eps_taylor     :   0.10000E-15                  max_taylor     :             4
  ----------------------------------- OT ---------------------------------------

  Step     Update method      Time    Convergence         Total energy    Change
  ------------------------------------------------------------------------------
     1 OT DIIS     0.80E-01    0.9     0.00959261      -426.0017033002 -4.26E+02
     2 OT DIIS     0.80E-01    1.4     0.00424258      -426.0650659608 -6.34E-02
     3 OT DIIS     0.80E-01    1.4     0.00268181      -426.0814459026 -1.64E-02
     4 OT DIIS     0.80E-01    1.4     0.00098746      -426.0930760429 -1.16E-02
     5 OT DIIS     0.80E-01    1.4     0.00038210      -426.0947589837 -1.68E-03
     6 OT DIIS     0.80E-01    1.4     0.00015610      -426.0950057516 -2.47E-04
     7 OT DIIS     0.80E-01    1.4     0.00007266      -426.0950456121 -3.99E-05
     8 OT DIIS     0.80E-01    1.4     0.00002903      -426.0950551514 -9.54E-06
     9 OT DIIS     0.80E-01    1.4     0.00001322      -426.0950566228 -1.47E-06
    10 OT DIIS     0.80E-01    1.4     0.00000582      -426.0950569382 -3.15E-07

  *** SCF run converged in    10 steps ***


  Electronic density on regular grids:       -191.9999992941        0.0000007059
  Core density on regular grids:              191.9999999877       -0.0000000123
  Total charge density on r-space grids:        0.0000006935
  Total charge density g-space grids:           0.0000006935

  Overlap energy of the core charge distribution:               0.00000113699119
  Self energy of the core charge distribution:              -1106.90238849848902
  Core Hamiltonian energy:                                    329.07878286416945
  Hartree energy:                                             454.35901086255041
  Exchange-correlation energy:                               -102.63046330342267

  Total energy:                                              -426.09505693820074

 ENERGY| Total FORCE_EVAL ( QS ) energy [hartree]           -426.095057001468490

 Number of electrons:                                                        192
 Number of occupied orbitals:                                                 96
 Number of molecular orbitals:                                                96

 Number of orbital functions:                                                148
 Number of independent orbital functions:                                    148

 Extrapolation method: ASPC


 SCF WAVEFUNCTION OPTIMIZATION

  ----------------------------------- OT ---------------------------------------
  Minimizer      : DIIS                : direct inversion
                                         in the iterative subspace
                                         using   7 DIIS vectors
                                         safer DIIS on
  Preconditioner : FULL_SINGLE_INVERSE : inversion of 
                                         H + eS - 2*(Sc)(c^T*H*c+const)(Sc)^T
  Precond_solver : DEFAULT
  stepsize       :    0.08000000                  energy_gap     :    0.08000000
  eps_taylor     :   0.10000E-15                  max_taylor     :             4
  ----------------------------------- OT ---------------------------------------

  Step     Update method      Time    Convergence         Total energy    Change
  ------------------------------------------------------------------------------
     1 OT DIIS     0.80E-01    0.9     0.01515703      -425.9715440700 -4.26E+02
     2 OT DIIS     0.80E-01    1.4     0.00662735      -426.1375426070 -1.66E-01
     3 OT DIIS     0.80E-01    1.4     0.00401217      -426.1816922738 -4.41E-02
     4 OT DIIS     0.80E-01    1.4     0.00136696      -426.2079738533 -2.63E-02
     5 OT DIIS     0.80E-01    1.4     0.00048861      -426.2111613634 -3.19E-03
     6 OT DIIS     0.80E-01    1.4     0.00021127      -426.2115410863 -3.80E-04
     7 OT DIIS     0.80E-01    1.4     0.00007673      -426.2116183446 -7.73E-05
     8 OT DIIS     0.80E-01    1.4     0.00002950      -426.2116285561 -1.02E-05
     9 OT DIIS     0.80E-01    1.4     0.00001437      -426.2116299560 -1.40E-06
    10 OT DIIS     0.80E-01    1.4     0.00000545      -426.2116303433 -3.87E-07

  *** SCF run converged in    10 steps ***


  Electronic density on regular grids:       -191.9999989090        0.0000010910
  Core density on regular grids:              191.9999999877       -0.0000000123
  Total charge density on r-space grids:        0.0000010787
  Total charge density g-space grids:           0.0000010787

  Overlap energy of the core charge distribution:               0.00000030693829
  Self energy of the core charge distribution:              -1106.90238849848902
  Core Hamiltonian energy:                                    329.91990858499997
  Hartree energy:                                             453.66188812908882
  Exchange-correlation energy:                               -102.89103886587719

  Total energy:                                              -426.21163034333904

 ENERGY| Total FORCE_EVAL ( QS ) energy [hartree]           -426.211630396719670

 OPT| **************************************************************************
 OPT| Step number                                                              1
 OPT| Optimization method                                                  LBFGS
 OPT| Total energy [hartree]                                     -426.2116303967
 OPT| Effective energy change [hartree]                            -0.0452126254
 OPT| Decrease in energy                                                     YES
 OPT| Used time [s]                                                       96.932
 OPT|
 OPT| Maximum step size                                             0.1166657172
 OPT| Convergence limit for maximum step size                       0.0030000000
 OPT| Maximum step size is converged                                          NO
 OPT|
 OPT| RMS step size                                                 0.0343407738
 OPT| Convergence limit for RMS step size                           0.0015000000
 OPT| RMS step size is converged                                              NO
 OPT|
 OPT| Maximum gradient                                              0.0384425136
 OPT| Convergence limit for maximum gradient                        0.0010000000
 OPT| Maximum gradient is converged                                           NO
 OPT|
 OPT| RMS gradient                                                  0.0148481096
 OPT| Convergence limit for RMS gradient                            0.0003000000
 OPT| RMS gradient is converged                                               NO
 OPT| **************************************************************************
 OPT| Estimated peak process memory after this step [MiB]                    583

 --------------------------
 OPTIMIZATION STEP:      2
 --------------------------

 Number of electrons:                                                        192
 Number of occupied orbitals:                                                 96
 Number of molecular orbitals:                                                96

 Number of orbital functions:                                                148
 Number of independent orbital functions:                                    148

 Extrapolation method: ASPC


 SCF WAVEFUNCTION OPTIMIZATION

  ----------------------------------- OT ---------------------------------------
  Minimizer      : DIIS                : direct inversion
                                         in the iterative subspace
                                         using   7 DIIS vectors
                                         safer DIIS on
  Preconditioner : FULL_SINGLE_INVERSE : inversion of 
                                         H + eS - 2*(Sc)(c^T*H*c+const)(Sc)^T
  Precond_solver : DEFAULT
  stepsize       :    0.08000000                  energy_gap     :    0.08000000
  eps_taylor     :   0.10000E-15                  max_taylor     :             4
  ----------------------------------- OT ---------------------------------------

  Step     Update method      Time    Convergence         Total energy    Change
  ------------------------------------------------------------------------------
     1 OT DIIS     0.80E-01    0.9     0.01310350      -426.0450890831 -4.26E+02
     2 OT DIIS     0.80E-01    1.4     0.00632975      -426.1686393791 -1.24E-01
     3 OT DIIS     0.80E-01    1.4     0.00396282      -426.2061491324 -3.75E-02
     4 OT DIIS     0.80E-01    1.4     0.00131418      -426.2318526451 -2.57E-02
     5 OT DIIS     0.80E-01    1.4     0.00049685      -426.2347407078 -2.89E-03
     6 OT DIIS     0.80E-01    1.4     0.00019615      -426.2351542200 -4.14E-04
     7 OT DIIS     0.80E-01    1.4     0.00008483      -426.2352167888 -6.26E-05
     8 OT DIIS     0.80E-01    1.4     0.00003083      -426.2352294940 -1.27E-05
     9 OT DIIS     0.80E-01    1.4     0.00001449      -426.2352310074 -1.51E-06
    10 OT DIIS     0.80E-01    1.4     0.00000568      -426.2352313807 -3.73E-07

  *** SCF run converged in    10 steps ***


  Electronic density on regular grids:       -191.9999989057        0.0000010943
  Core density on regular grids:              191.9999999877       -0.0000000123
  Total charge density on r-space grids:        0.0000010820
  Total charge density g-space grids:           0.0000010820

  Overlap energy of the core charge distribution:               0.00000025061763
  Self energy of the core charge distribution:              -1106.90238849848902
  Core Hamiltonian energy:                                    329.38493147207822
  Hartree energy:                                             454.06329691620329
  Exchange-correlation energy:                               -102.78107152112804

  Total energy:                                              -426.23523138071789

 ENERGY| Total FORCE_EVAL ( QS ) energy [hartree]           -426.235231440104940

 OPT| **************************************************************************
 OPT| Step number                                                              2
 OPT| Optimization method                                                  LBFGS
 OPT| Total energy [hartree]                                     -426.2352314401
 OPT| Effective energy change [hartree]                            -0.0236010434
 OPT| Decrease in energy                                                     YES
 OPT| Used time [s]                                                       16.113
 OPT|
 OPT| Maximum step size                                             0.0419996120
 OPT| Convergence limit for maximum step size                       0.0030000000
 OPT| Maximum step size is converged                                          NO
 OPT|
 OPT| RMS step size                                                 0.0177848509
 OPT| Convergence limit for RMS step size                           0.0015000000
 OPT| RMS step size is converged                                              NO
 OPT|
 OPT| Maximum gradient                                              0.0280242259
 OPT| Convergence limit for maximum gradient                        0.0010000000
 OPT| Maximum gradient is converged                                           NO
 OPT|
 OPT| RMS gradient                                                  0.0117215873
 OPT| Convergence limit for RMS gradient                            0.0003000000
 OPT| RMS gradient is converged                                               NO
 OPT| **************************************************************************
 OPT| Estimated peak process memory after this step [MiB]                    587

 --------------------------
 OPTIMIZATION STEP:      3
 --------------------------

 Number of electrons:                                                        192
 Number of occupied orbitals:                                                 96
 Number of molecular orbitals:                                                96

 Number of orbital functions:                                                148
 Number of independent orbital functions:                                    148

 Extrapolation method: ASPC


 SCF WAVEFUNCTION OPTIMIZATION

  ----------------------------------- OT ---------------------------------------
  Minimizer      : DIIS                : direct inversion
                                         in the iterative subspace
                                         using   7 DIIS vectors
                                         safer DIIS on
  Preconditioner : FULL_SINGLE_INVERSE : inversion of 
                                         H + eS - 2*(Sc)(c^T*H*c+const)(Sc)^T
  Precond_solver : DEFAULT
  stepsize       :    0.08000000                  energy_gap     :    0.08000000
  eps_taylor     :   0.10000E-15                  max_taylor     :             4
  ----------------------------------- OT ---------------------------------------

  Step     Update method      Time    Convergence         Total energy    Change
  ------------------------------------------------------------------------------
     1 OT DIIS     0.80E-01    0.9     0.01040871      -426.2082473373 -4.26E+02
     2 OT DIIS     0.80E-01    1.4     0.00417997      -426.2767186364 -6.85E-02
     3 OT DIIS     0.80E-01    1.4     0.00263420      -426.2911752801 -1.45E-02
     4 OT DIIS     0.80E-01    1.4     0.00101295      -426.3021763465 -1.10E-02
     5 OT DIIS     0.80E-01    1.4     0.00038941      -426.3039762892 -1.80E-03
     6 OT DIIS     0.80E-01    1.4     0.00018018      -426.3042246930 -2.48E-04
     7 OT DIIS     0.80E-01    1.4     0.00007254      -426.3042845494 -5.99E-05
     8 OT DIIS     0.80E-01    1.4     0.00003173      -426.3042943366 -9.79E-06
     9 OT DIIS     0.80E-01    1.4     0.00001495      -426.3042962020 -1.87E-06
    10 OT DIIS     0.80E-01    1.4     0.00000675      -426.3042966309 -4.29E-07

  *** SCF run converged in    10 steps ***


  Electronic density on regular grids:       -191.9999991196        0.0000008804
  Core density on regular grids:              191.9999999878       -0.0000000122
  Total charge density on r-space grids:        0.0000008681
  Total charge density g-space grids:           0.0000008681

  Overlap energy of the core charge distribution:               0.00000008388099
  Self energy of the core charge distribution:              -1106.90238849848902
  Core Hamiltonian energy:                                    326.27047223621292
  Hartree energy:                                             456.41548992139383
  Exchange-correlation energy:                               -102.08787037390660

  Total energy:                                              -426.30429663090791

 ENERGY| Total FORCE_EVAL ( QS ) energy [hartree]           -426.304296717908016

 OPT| **************************************************************************
 OPT| Step number                                                              3
 OPT| Optimization method                                                  LBFGS
 OPT| Total energy [hartree]                                     -426.3042967179
 OPT| Effective energy change [hartree]                            -0.0690652778
 OPT| Decrease in energy                                                     YES
 OPT| Used time [s]                                                       16.050
 OPT|
 OPT| Maximum step size                                             0.2395898757
 OPT| Convergence limit for maximum step size                       0.0030000000
 OPT| Maximum step size is converged                                          NO
 OPT|
 OPT| RMS step size                                                 0.1029064101
 OPT| Convergence limit for RMS step size                           0.0015000000
 OPT| RMS step size is converged                                              NO
 OPT|
 OPT| Maximum gradient                                              0.0288083691
 OPT| Convergence limit for maximum gradient                        0.0010000000
 OPT| Maximum gradient is converged                                           NO
 OPT|
 OPT| RMS gradient                                                  0.0123647327
 OPT| Convergence limit for RMS gradient                            0.0003000000
 OPT| RMS gradient is converged                                               NO
 OPT| **************************************************************************
 OPT| Estimated peak process memory after this step [MiB]                    587

 --------------------------
 OPTIMIZATION STEP:      4
 --------------------------

 Number of electrons:                                                        192
 Number of occupied orbitals:                                                 96
 Number of molecular orbitals:                                                96

 Number of orbital functions:                                                148
 Number of independent orbital functions:                                    148

 Extrapolation method: ASPC


 SCF WAVEFUNCTION OPTIMIZATION

  ----------------------------------- OT ---------------------------------------
  Minimizer      : DIIS                : direct inversion
                                         in the iterative subspace
                                         using   7 DIIS vectors
                                         safer DIIS on
  Preconditioner : FULL_SINGLE_INVERSE : inversion of 
                                         H + eS - 2*(Sc)(c^T*H*c+const)(Sc)^T
  Precond_solver : DEFAULT
  stepsize       :    0.08000000                  energy_gap     :    0.08000000
  eps_taylor     :   0.10000E-15                  max_taylor     :             4
  ----------------------------------- OT ---------------------------------------

  Step     Update method      Time    Convergence         Total energy    Change
  ------------------------------------------------------------------------------
     1 OT DIIS     0.80E-01    0.9     0.01854247      -426.0961947834 -4.26E+02
     2 OT DIIS     0.80E-01    1.4     0.00721002      -426.2858563639 -1.90E-01
     3 OT DIIS     0.80E-01    1.4     0.00386637      -426.3195794401 -3.37E-02
     4 OT DIIS     0.80E-01    1.4     0.00173598      -426.3396594176 -2.01E-02
     5 OT DIIS     0.80E-01    1.4     0.00060459      -426.3446994274 -5.04E-03
     6 OT DIIS     0.80E-01    1.4     0.00030227      -426.3451974475 -4.98E-04
     7 OT DIIS     0.80E-01    1.4     0.00013227      -426.3453418237 -1.44E-04
     8 OT DIIS     0.80E-01    1.4     0.00005170      -426.3453719351 -3.01E-05
     9 OT DIIS     0.80E-01    1.4     0.00002577      -426.3453760275 -4.09E-06
    10 OT DIIS     0.80E-01    1.4     0.00001326      -426.3453770789 -1.05E-06
    11 OT DIIS     0.80E-01    1.4     0.00000639      -426.3453773780 -2.99E-07

  *** SCF run converged in    11 steps ***


  Electronic density on regular grids:       -191.9999993141        0.0000006859
  Core density on regular grids:              191.9999999877       -0.0000000123
  Total charge density on r-space grids:        0.0000006736
  Total charge density g-space grids:           0.0000006736

  Overlap energy of the core charge distribution:               0.00000006018765
  Self energy of the core charge distribution:              -1106.90238849848902
  Core Hamiltonian energy:                                    325.04501713671993
  Hartree energy:                                             457.31290012064943
  Exchange-correlation energy:                               -101.80090619707569

  Total energy:                                              -426.34537737800770

 ENERGY| Total FORCE_EVAL ( QS ) energy [hartree]           -426.345377444553492

 OPT| **************************************************************************
 OPT| Step number                                                              4
 OPT| Optimization method                                                  LBFGS
 OPT| Total energy [hartree]                                     -426.3453774446
 OPT| Effective energy change [hartree]                            -0.0410807266
 OPT| Decrease in energy                                                     YES
 OPT| Used time [s]                                                       17.447
 OPT|
 OPT| Maximum step size                                             0.1821664895
 OPT| Convergence limit for maximum step size                       0.0030000000
 OPT| Maximum step size is converged                                          NO
 OPT|
 OPT| RMS step size                                                 0.0691500980
 OPT| Convergence limit for RMS step size                           0.0015000000
 OPT| RMS step size is converged                                              NO
 OPT|
 OPT| Maximum gradient                                              0.0383511857
 OPT| Convergence limit for maximum gradient                        0.0010000000
 OPT| Maximum gradient is converged                                           NO
 OPT|
 OPT| RMS gradient                                                  0.0125587925
 OPT| Convergence limit for RMS gradient                            0.0003000000
 OPT| RMS gradient is converged                                               NO
 OPT| **************************************************************************
 OPT| Estimated peak process memory after this step [MiB]                    591

 --------------------------
 OPTIMIZATION STEP:      5
 --------------------------

 Number of electrons:                                                        192
 Number of occupied orbitals:                                                 96
 Number of molecular orbitals:                                                96

 Number of orbital functions:                                                148
 Number of independent orbital functions:                                    148

 Extrapolation method: ASPC


 SCF WAVEFUNCTION OPTIMIZATION

  ----------------------------------- OT ---------------------------------------
  Minimizer      : DIIS                : direct inversion
                                         in the iterative subspace
                                         using   7 DIIS vectors
                                         safer DIIS on
  Preconditioner : FULL_SINGLE_INVERSE : inversion of 
                                         H + eS - 2*(Sc)(c^T*H*c+const)(Sc)^T
  Precond_solver : DEFAULT
  stepsize       :    0.08000000                  energy_gap     :    0.08000000
  eps_taylor     :   0.10000E-15                  max_taylor     :             4
  ----------------------------------- OT ---------------------------------------

  Step     Update method      Time    Convergence         Total energy    Change
  ------------------------------------------------------------------------------
     1 OT DIIS     0.80E-01    0.9     0.01251442      -426.2272296585 -4.26E+02
     2 OT DIIS     0.80E-01    1.4     0.00558203      -426.3298083672 -1.03E-01
     3 OT DIIS     0.80E-01    1.4     0.00354421      -426.3555182896 -2.57E-02
     4 OT DIIS     0.80E-01    1.4     0.00141780      -426.3758341859 -2.03E-02
     5 OT DIIS     0.80E-01    1.4     0.00055066      -426.3794104806 -3.58E-03
     6 OT DIIS     0.80E-01    1.4     0.00026941      -426.3799506352 -5.40E-04
     7 OT DIIS     0.80E-01    1.4     0.00012829      -426.3800823953 -1.32E-04
     8 OT DIIS     0.80E-01    1.4     0.00005942      -426.3801148395 -3.24E-05
     9 OT DIIS     0.80E-01    1.4     0.00003091      -426.3801216731 -6.83E-06
    10 OT DIIS     0.80E-01    1.4     0.00001594      -426.3801236112 -1.94E-06
    11 OT DIIS     0.80E-01    1.4     0.00000798      -426.3801241509 -5.40E-07

  *** SCF run converged in    11 steps ***


  Electronic density on regular grids:       -191.9999987492        0.0000012508
  Core density on regular grids:              191.9999999877       -0.0000000123
  Total charge density on r-space grids:        0.0000012385
  Total charge density g-space grids:           0.0000012385

  Overlap energy of the core charge distribution:               0.00000003573962
  Self energy of the core charge distribution:              -1106.90238849848902
  Core Hamiltonian energy:                                    323.53762641050884
  Hartree energy:                                             458.42431446630343
  Exchange-correlation energy:                               -101.43967656497958

  Total energy:                                              -426.38012415091657

 ENERGY| Total FORCE_EVAL ( QS ) energy [hartree]           -426.380124281360395

 OPT| **************************************************************************
 OPT| Step number                                                              5
 OPT| Optimization method                                                  LBFGS
 OPT| Total energy [hartree]                                     -426.3801242814
 OPT| Effective energy change [hartree]                            -0.0347468368
 OPT| Decrease in energy                                                     YES
 OPT| Used time [s]                                                       17.444
 OPT|
 OPT| Maximum step size                                             0.3087286539
 OPT| Convergence limit for maximum step size                       0.0030000000
 OPT| Maximum step size is converged                                          NO
 OPT|
 OPT| RMS step size                                                 0.0995011724
 OPT| Convergence limit for RMS step size                           0.0015000000
 OPT| RMS step size is converged                                              NO
 OPT|
 OPT| Maximum gradient                                              0.0343554255
 OPT| Convergence limit for maximum gradient                        0.0010000000
 OPT| Maximum gradient is converged                                           NO
 OPT|
 OPT| RMS gradient                                                  0.0080062937
 OPT| Convergence limit for RMS gradient                            0.0003000000
 OPT| RMS gradient is converged                                               NO
 OPT| **************************************************************************
 OPT| Estimated peak process memory after this step [MiB]                    591

 --------------------------
 OPTIMIZATION STEP:      6
 --------------------------

 Number of electrons:                                                        192
 Number of occupied orbitals:                                                 96
 Number of molecular orbitals:                                                96

 Number of orbital functions:                                                148
 Number of independent orbital functions:                                    148

 Extrapolation method: ASPC


 SCF WAVEFUNCTION OPTIMIZATION

  ----------------------------------- OT ---------------------------------------
  Minimizer      : DIIS                : direct inversion
                                         in the iterative subspace
                                         using   7 DIIS vectors
                                         safer DIIS on
  Preconditioner : FULL_SINGLE_INVERSE : inversion of 
                                         H + eS - 2*(Sc)(c^T*H*c+const)(Sc)^T
  Precond_solver : DEFAULT
  stepsize       :    0.08000000                  energy_gap     :    0.08000000
  eps_taylor     :   0.10000E-15                  max_taylor     :             4
  ----------------------------------- OT ---------------------------------------

  Step     Update method      Time    Convergence         Total energy    Change
  ------------------------------------------------------------------------------
     1 OT DIIS     0.80E-01    0.9     0.01088030      -426.2487447439 -4.26E+02
     2 OT DIIS     0.80E-01    1.4     0.00564223      -426.3381312298 -8.94E-02
     3 OT DIIS     0.80E-01    1.4     0.00350538      -426.3688891226 -3.08E-02
     4 OT DIIS     0.80E-01    1.4     0.00127736      -426.3883589309 -1.95E-02
     5 OT DIIS     0.80E-01    1.4     0.00046908      -426.3911953331 -2.84E-03
     6 OT DIIS     0.80E-01    1.4     0.00022485      -426.3915186803 -3.23E-04
     7 OT DIIS     0.80E-01    1.4     0.00009655      -426.3915988136 -8.01E-05
     8 OT DIIS     0.80E-01    1.4     0.00004150      -426.3916146469 -1.58E-05
     9 OT DIIS     0.80E-01    1.4     0.00002064      -426.3916175729 -2.93E-06
    10 OT DIIS     0.80E-01    1.4     0.00001079      -426.3916183340 -7.61E-07
    11 OT DIIS     0.80E-01    1.4     0.00000549      -426.3916185550 -2.21E-07

  *** SCF run converged in    11 steps ***


  Electronic density on regular grids:       -191.9999986593        0.0000013407
  Core density on regular grids:              191.9999999877       -0.0000000123
  Total charge density on r-space grids:        0.0000013284
  Total charge density g-space grids:           0.0000013284

  Overlap energy of the core charge distribution:               0.00000003664468
  Self energy of the core charge distribution:              -1106.90238849848902
  Core Hamiltonian energy:                                    323.98483291640662
  Hartree energy:                                             458.06857818987498
  Exchange-correlation energy:                               -101.54264119940227

  Total energy:                                              -426.39161855496502

 ENERGY| Total FORCE_EVAL ( QS ) energy [hartree]           -426.391618614238155

 OPT| **************************************************************************
 OPT| Step number                                                              6
 OPT| Optimization method                                                  LBFGS
 OPT| Total energy [hartree]                                     -426.3916186142
 OPT| Effective energy change [hartree]                            -0.0114943329
 OPT| Decrease in energy                                                     YES
 OPT| Used time [s]                                                       17.459
 OPT|
 OPT| Maximum step size                                             0.1139748196
 OPT| Convergence limit for maximum step size                       0.0030000000
 OPT| Maximum step size is converged                                          NO
 OPT|
 OPT| RMS step size                                                 0.0323798913
 OPT| Convergence limit for RMS step size                           0.0015000000
 OPT| RMS step size is converged                                              NO
 OPT|
 OPT| Maximum gradient                                              0.0417072738
 OPT| Convergence limit for maximum gradient                        0.0010000000
 OPT| Maximum gradient is converged                                           NO
 OPT|
 OPT| RMS gradient                                                  0.0094243758
 OPT| Convergence limit for RMS gradient                            0.0003000000
 OPT| RMS gradient is converged                                               NO
 OPT| **************************************************************************
 OPT| Estimated peak process memory after this step [MiB]                    591

 --------------------------
 OPTIMIZATION STEP:      7
 --------------------------

 Number of electrons:                                                        192
 Number of occupied orbitals:                                                 96
 Number of molecular orbitals:                                                96

 Number of orbital functions:                                                148
 Number of independent orbital functions:                                    148

 Extrapolation method: ASPC


 SCF WAVEFUNCTION OPTIMIZATION

  ----------------------------------- OT ---------------------------------------
  Minimizer      : DIIS                : direct inversion
                                         in the iterative subspace
                                         using   7 DIIS vectors
                                         safer DIIS on
  Preconditioner : FULL_SINGLE_INVERSE : inversion of 
                                         H + eS - 2*(Sc)(c^T*H*c+const)(Sc)^T
  Precond_solver : DEFAULT
  stepsize       :    0.08000000                  energy_gap     :    0.08000000
  eps_taylor     :   0.10000E-15                  max_taylor     :             4
  ----------------------------------- OT ---------------------------------------

  Step     Update method      Time    Convergence         Total energy    Change
  ------------------------------------------------------------------------------
     1 OT DIIS     0.80E-01    0.9     0.00757037      -426.3137529802 -4.26E+02
     2 OT DIIS     0.80E-01    1.4     0.00452484      -426.3636992688 -4.99E-02
     3 OT DIIS     0.80E-01    1.4     0.00226626      -426.3909997067 -2.73E-02
     4 OT DIIS     0.80E-01    1.4     0.00078091      -426.3999117432 -8.91E-03
     5 OT DIIS     0.80E-01    1.4     0.00034301      -426.4008522891 -9.41E-04
     6 OT DIIS     0.80E-01    1.4     0.00015794      -426.4010382969 -1.86E-04
     7 OT DIIS     0.80E-01    1.4     0.00006009      -426.4010827957 -4.45E-05
     8 OT DIIS     0.80E-01    1.4     0.00003061      -426.4010888471 -6.05E-06
     9 OT DIIS     0.80E-01    1.4     0.00001612      -426.4010905536 -1.71E-06
    10 OT DIIS     0.80E-01    1.4     0.00000884      -426.4010910550 -5.01E-07

  *** SCF run converged in    10 steps ***


  Electronic density on regular grids:       -191.9999979654        0.0000020346
  Core density on regular grids:              191.9999999877       -0.0000000123
  Total charge density on r-space grids:        0.0000020223
  Total charge density g-space grids:           0.0000020223

  Overlap energy of the core charge distribution:               0.00000003719694
  Self energy of the core charge distribution:              -1106.90238849848902
  Core Hamiltonian energy:                                    324.36202350481125
  Hartree energy:                                             457.77747138999143
  Exchange-correlation energy:                               -101.63819748849099

  Total energy:                                              -426.40109105498027

 ENERGY| Total FORCE_EVAL ( QS ) energy [hartree]           -426.401091228789880

 OPT| **************************************************************************
 OPT| Step number                                                              7
 OPT| Optimization method                                                  LBFGS
 OPT| Total energy [hartree]                                     -426.4010912288
 OPT| Effective energy change [hartree]                            -0.0094726146
 OPT| Decrease in energy                                                     YES
 OPT| Used time [s]                                                       16.087
 OPT|
 OPT| Maximum step size                                             0.0608921261
 OPT| Convergence limit for maximum step size                       0.0030000000
 OPT| Maximum step size is converged                                          NO
 OPT|
 OPT| RMS step size                                                 0.0184593081
 OPT| Convergence limit for RMS step size                           0.0015000000
 OPT| RMS step size is converged                                              NO
 OPT|
 OPT| Maximum gradient                                              0.0180001483
 OPT| Convergence limit for maximum gradient                        0.0010000000
 OPT| Maximum gradient is converged                                           NO
 OPT|
 OPT| RMS gradient                                                  0.0053517468
 OPT| Convergence limit for RMS gradient                            0.0003000000
 OPT| RMS gradient is converged                                               NO
 OPT| **************************************************************************
 OPT| Estimated peak process memory after this step [MiB]                    597

 --------------------------
 OPTIMIZATION STEP:      8
 --------------------------

 Number of electrons:                                                        192
 Number of occupied orbitals:                                                 96
 Number of molecular orbitals:                                                96

 Number of orbital functions:                                                148
 Number of independent orbital functions:                                    148

 Extrapolation method: ASPC


 SCF WAVEFUNCTION OPTIMIZATION

  ----------------------------------- OT ---------------------------------------
  Minimizer      : DIIS                : direct inversion
                                         in the iterative subspace
                                         using   7 DIIS vectors
                                         safer DIIS on
  Preconditioner : FULL_SINGLE_INVERSE : inversion of 
                                         H + eS - 2*(Sc)(c^T*H*c+const)(Sc)^T
  Precond_solver : DEFAULT
  stepsize       :    0.08000000                  energy_gap     :    0.08000000
  eps_taylor     :   0.10000E-15                  max_taylor     :             4
  ----------------------------------- OT ---------------------------------------

  Step     Update method      Time    Convergence         Total energy    Change
  ------------------------------------------------------------------------------
     1 OT DIIS     0.80E-01    0.9     0.00342762      -426.3877769622 -4.26E+02
     2 OT DIIS     0.80E-01    1.4     0.00196705      -426.3976576057 -9.88E-03
     3 OT DIIS     0.80E-01    1.4     0.00109796      -426.4023615667 -4.70E-03
     4 OT DIIS     0.80E-01    1.4     0.00039272      -426.4044134777 -2.05E-03
     5 OT DIIS     0.80E-01    1.4     0.00017456      -426.4046618700 -2.48E-04
     6 OT DIIS     0.80E-01    1.4     0.00007540      -426.4047116624 -4.98E-05
     7 OT DIIS     0.80E-01    1.4     0.00003194      -426.4047216787 -1.00E-05
     8 OT DIIS     0.80E-01    1.4     0.00001578      -426.4047234854 -1.81E-06
     9 OT DIIS     0.80E-01    1.4     0.00000807      -426.4047239543 -4.69E-07

  *** SCF run converged in     9 steps ***


  Electronic density on regular grids:       -191.9999986730        0.0000013270
  Core density on regular grids:              191.9999999876       -0.0000000124
  Total charge density on r-space grids:        0.0000013146
  Total charge density g-space grids:           0.0000013146

  Overlap energy of the core charge distribution:               0.00000004414341
  Self energy of the core charge distribution:              -1106.90238849848902
  Core Hamiltonian energy:                                    324.51522093917231
  Hartree energy:                                             457.66196948348721
  Exchange-correlation energy:                               -101.67952592262392

  Total energy:                                              -426.40472395430993

 ENERGY| Total FORCE_EVAL ( QS ) energy [hartree]           -426.404724077485071

 OPT| **************************************************************************
 OPT| Step number                                                              8
 OPT| Optimization method                                                  LBFGS
 OPT| Total energy [hartree]                                     -426.4047240775
 OPT| Effective energy change [hartree]                            -0.0036328487
 OPT| Decrease in energy                                                     YES
 OPT| Used time [s]                                                       14.665
 OPT|
 OPT| Maximum step size                                             0.0986153495
 OPT| Convergence limit for maximum step size                       0.0030000000
 OPT| Maximum step size is converged                                          NO
 OPT|
 OPT| RMS step size                                                 0.0317933414
 OPT| Convergence limit for RMS step size                           0.0015000000
 OPT| RMS step size is converged                                              NO
 OPT|
 OPT| Maximum gradient                                              0.0183427571
 OPT| Convergence limit for maximum gradient                        0.0010000000
 OPT| Maximum gradient is converged                                           NO
 OPT|
 OPT| RMS gradient                                                  0.0054743469
 OPT| Convergence limit for RMS gradient                            0.0003000000
 OPT| RMS gradient is converged                                               NO
 OPT| **************************************************************************
 OPT| Estimated peak process memory after this step [MiB]                    597

 --------------------------
 OPTIMIZATION STEP:      9
 --------------------------

 Number of electrons:                                                        192
 Number of occupied orbitals:                                                 96
 Number of molecular orbitals:                                                96

 Number of orbital functions:                                                148
 Number of independent orbital functions:                                    148

 Extrapolation method: ASPC


 SCF WAVEFUNCTION OPTIMIZATION

  ----------------------------------- OT ---------------------------------------
  Minimizer      : DIIS                : direct inversion
                                         in the iterative subspace
                                         using   7 DIIS vectors
                                         safer DIIS on
  Preconditioner : FULL_SINGLE_INVERSE : inversion of 
                                         H + eS - 2*(Sc)(c^T*H*c+const)(Sc)^T
  Precond_solver : DEFAULT
  stepsize       :    0.08000000                  energy_gap     :    0.08000000
  eps_taylor     :   0.10000E-15                  max_taylor     :             4
  ----------------------------------- OT ---------------------------------------

  Step     Update method      Time    Convergence         Total energy    Change
  ------------------------------------------------------------------------------
     1 OT DIIS     0.80E-01    0.9     0.00371805      -426.3865619257 -4.26E+02
     2 OT DIIS     0.80E-01    1.4     0.00232703      -426.3987689183 -1.22E-02
     3 OT DIIS     0.80E-01    1.4     0.00124996      -426.4059627445 -7.19E-03
     4 OT DIIS     0.80E-01    1.4     0.00042494      -426.4087364216 -2.77E-03
     5 OT DIIS     0.80E-01    1.4     0.00015900      -426.4090435748 -3.07E-04
     6 OT DIIS     0.80E-01    1.4     0.00008236      -426.4090845267 -4.10E-05
     7 OT DIIS     0.80E-01    1.4     0.00003704      -426.4090975446 -1.30E-05
     8 OT DIIS     0.80E-01    1.4     0.00001945      -426.4091001862 -2.64E-06
     9 OT DIIS     0.80E-01    1.4     0.00001050      -426.4091009327 -7.46E-07
    10 OT DIIS     0.80E-01    1.4     0.00000516      -426.4091011735 -2.41E-07

  *** SCF run converged in    10 steps ***


  Electronic density on regular grids:       -191.9999983772        0.0000016228
  Core density on regular grids:              191.9999999876       -0.0000000124
  Total charge density on r-space grids:        0.0000016104
  Total charge density g-space grids:           0.0000016104

  Overlap energy of the core charge distribution:               0.00000003689158
  Self energy of the core charge distribution:              -1106.90238849848902
  Core Hamiltonian energy:                                    324.18602849705661
  Hartree energy:                                             457.91171769714845
  Exchange-correlation energy:                               -101.60445890612665

  Total energy:                                              -426.40910117351893

 ENERGY| Total FORCE_EVAL ( QS ) energy [hartree]           -426.409101228396594

 OPT| **************************************************************************
 OPT| Step number                                                              9
 OPT| Optimization method                                                  LBFGS
 OPT| Total energy [hartree]                                     -426.4091012284
 OPT| Effective energy change [hartree]                            -0.0043771509
 OPT| Decrease in energy                                                     YES
 OPT| Used time [s]                                                       16.060
 OPT|
 OPT| Maximum step size                                             0.0422926353
 OPT| Convergence limit for maximum step size                       0.0030000000
 OPT| Maximum step size is converged                                          NO
 OPT|
 OPT| RMS step size                                                 0.0126903422
 OPT| Convergence limit for RMS step size                           0.0015000000
 OPT| RMS step size is converged                                              NO
 OPT|
 OPT| Maximum gradient                                              0.0119868095
 OPT| Convergence limit for maximum gradient                        0.0010000000
 OPT| Maximum gradient is converged                                           NO
 OPT|
 OPT| RMS gradient                                                  0.0029483799
 OPT| Convergence limit for RMS gradient                            0.0003000000
 OPT| RMS gradient is converged                                               NO
 OPT| **************************************************************************
 OPT| Estimated peak process memory after this step [MiB]                    599

 --------------------------
 OPTIMIZATION STEP:     10
 --------------------------

 Number of electrons:                                                        192
 Number of occupied orbitals:                                                 96
 Number of molecular orbitals:                                                96

 Number of orbital functions:                                                148
 Number of independent orbital functions:                                    148

 Extrapolation method: ASPC


 SCF WAVEFUNCTION OPTIMIZATION

  ----------------------------------- OT ---------------------------------------
  Minimizer      : DIIS                : direct inversion
                                         in the iterative subspace
                                         using   7 DIIS vectors
                                         safer DIIS on
  Preconditioner : FULL_SINGLE_INVERSE : inversion of 
                                         H + eS - 2*(Sc)(c^T*H*c+const)(Sc)^T
  Precond_solver : DEFAULT
  stepsize       :    0.08000000                  energy_gap     :    0.08000000
  eps_taylor     :   0.10000E-15                  max_taylor     :             4
  ----------------------------------- OT ---------------------------------------

  Step     Update method      Time    Convergence         Total energy    Change
  ------------------------------------------------------------------------------
     1 OT DIIS     0.80E-01    0.9     0.00364798      -426.3926561461 -4.26E+02
     2 OT DIIS     0.80E-01    1.4     0.00203656      -426.4032767706 -1.06E-02
     3 OT DIIS     0.80E-01    1.4     0.00126786      -426.4076636543 -4.39E-03
     4 OT DIIS     0.80E-01    1.4     0.00043383      -426.4104414637 -2.78E-03
     5 OT DIIS     0.80E-01    1.4     0.00015219      -426.4107812618 -3.40E-04
     6 OT DIIS     0.80E-01    1.4     0.00007807      -426.4108173261 -3.61E-05
     7 OT DIIS     0.80E-01    1.4     0.00003588      -426.4108283751 -1.10E-05
     8 OT DIIS     0.80E-01    1.4     0.00001761      -426.4108308182 -2.44E-06
     9 OT DIIS     0.80E-01    1.4     0.00000920      -426.4108314092 -5.91E-07

  *** SCF run converged in     9 steps ***


  Electronic density on regular grids:       -191.9999980072        0.0000019928
  Core density on regular grids:              191.9999999875       -0.0000000125
  Total charge density on r-space grids:        0.0000019804
  Total charge density g-space grids:           0.0000019804

  Overlap energy of the core charge distribution:               0.00000003698577
  Self energy of the core charge distribution:              -1106.90238849848902
  Core Hamiltonian energy:                                    324.10881488823344
  Hartree energy:                                             457.97285039129997
  Exchange-correlation energy:                               -101.59010822720224

  Total energy:                                              -426.41083140917215

 ENERGY| Total FORCE_EVAL ( QS ) energy [hartree]           -426.410831579069907

 OPT| **************************************************************************
 OPT| Step number                                                             10
 OPT| Optimization method                                                  LBFGS
 OPT| Total energy [hartree]                                     -426.4108315791
 OPT| Effective energy change [hartree]                            -0.0017303507
 OPT| Decrease in energy                                                     YES
 OPT| Used time [s]                                                       14.716
 OPT|
 OPT| Maximum step size                                             0.0357845119
 OPT| Convergence limit for maximum step size                       0.0030000000
 OPT| Maximum step size is converged                                          NO
 OPT|
 OPT| RMS step size                                                 0.0107022008
 OPT| Convergence limit for RMS step size                           0.0015000000
 OPT| RMS step size is converged                                              NO
 OPT|
 OPT| Maximum gradient                                              0.0077152951
 OPT| Convergence limit for maximum gradient                        0.0010000000
 OPT| Maximum gradient is converged                                           NO
 OPT|
 OPT| RMS gradient                                                  0.0023666998
 OPT| Convergence limit for RMS gradient                            0.0003000000
 OPT| RMS gradient is converged                                               NO
 OPT| **************************************************************************
 OPT| Estimated peak process memory after this step [MiB]                    601

 --------------------------
 OPTIMIZATION STEP:     11
 --------------------------

 Number of electrons:                                                        192
 Number of occupied orbitals:                                                 96
 Number of molecular orbitals:                                                96

 Number of orbital functions:                                                148
 Number of independent orbital functions:                                    148

 Extrapolation method: ASPC


 SCF WAVEFUNCTION OPTIMIZATION

  ----------------------------------- OT ---------------------------------------
  Minimizer      : DIIS                : direct inversion
                                         in the iterative subspace
                                         using   7 DIIS vectors
                                         safer DIIS on
  Preconditioner : FULL_SINGLE_INVERSE : inversion of 
                                         H + eS - 2*(Sc)(c^T*H*c+const)(Sc)^T
  Precond_solver : DEFAULT
  stepsize       :    0.08000000                  energy_gap     :    0.08000000
  eps_taylor     :   0.10000E-15                  max_taylor     :             4
  ----------------------------------- OT ---------------------------------------

  Step     Update method      Time    Convergence         Total energy    Change
  ------------------------------------------------------------------------------
     1 OT DIIS     0.80E-01    0.9     0.00141386      -426.4090545601 -4.26E+02
     2 OT DIIS     0.80E-01    1.4     0.00079215      -426.4106806826 -1.63E-03
     3 OT DIIS     0.80E-01    1.4     0.00047418      -426.4113767120 -6.96E-04
     4 OT DIIS     0.80E-01    1.4     0.00017005      -426.4117593059 -3.83E-04
     5 OT DIIS     0.80E-01    1.4     0.00006402      -426.4118095531 -5.02E-05
     6 OT DIIS     0.80E-01    1.4     0.00003021      -426.4118161147 -6.56E-06
     7 OT DIIS     0.80E-01    1.4     0.00001316      -426.4118177001 -1.59E-06
     8 OT DIIS     0.80E-01    1.4     0.00000651      -426.4118180028 -3.03E-07

  *** SCF run converged in     8 steps ***


  Electronic density on regular grids:       -191.9999977998        0.0000022002
  Core density on regular grids:              191.9999999876       -0.0000000124
  Total charge density on r-space grids:        0.0000021878
  Total charge density g-space grids:           0.0000021878

  Overlap energy of the core charge distribution:               0.00000003657821
  Self energy of the core charge distribution:              -1106.90238849848902
  Core Hamiltonian energy:                                    324.12680881728710
  Hartree energy:                                             457.95896989183512
  Exchange-correlation energy:                               -101.59520824998552

  Total energy:                                              -426.41181800277400

 ENERGY| Total FORCE_EVAL ( QS ) energy [hartree]           -426.411818081300055

 OPT| **************************************************************************
 OPT| Step number                                                             11
 OPT| Optimization method                                                  LBFGS
 OPT| Total energy [hartree]                                     -426.4118180813
 OPT| Effective energy change [hartree]                            -0.0009865022
 OPT| Decrease in energy                                                     YES
 OPT| Used time [s]                                                       13.297
 OPT|
 OPT| Maximum step size                                             0.0334524299
 OPT| Convergence limit for maximum step size                       0.0030000000
 OPT| Maximum step size is converged                                          NO
 OPT|
 OPT| RMS step size                                                 0.0087465766
 OPT| Convergence limit for RMS step size                           0.0015000000
 OPT| RMS step size is converged                                              NO
 OPT|
 OPT| Maximum gradient                                              0.0057185178
 OPT| Convergence limit for maximum gradient                        0.0010000000
 OPT| Maximum gradient is converged                                           NO
 OPT|
 OPT| RMS gradient                                                  0.0020065075
 OPT| Convergence limit for RMS gradient                            0.0003000000
 OPT| RMS gradient is converged                                               NO
 OPT| **************************************************************************
 OPT| Estimated peak process memory after this step [MiB]                    601

 --------------------------
 OPTIMIZATION STEP:     12
 --------------------------

 Number of electrons:                                                        192
 Number of occupied orbitals:                                                 96
 Number of molecular orbitals:                                                96

 Number of orbital functions:                                                148
 Number of independent orbital functions:                                    148

 Extrapolation method: ASPC


 SCF WAVEFUNCTION OPTIMIZATION

  ----------------------------------- OT ---------------------------------------
  Minimizer      : DIIS                : direct inversion
                                         in the iterative subspace
                                         using   7 DIIS vectors
                                         safer DIIS on
  Preconditioner : FULL_SINGLE_INVERSE : inversion of 
                                         H + eS - 2*(Sc)(c^T*H*c+const)(Sc)^T
  Precond_solver : DEFAULT
  stepsize       :    0.08000000                  energy_gap     :    0.08000000
  eps_taylor     :   0.10000E-15                  max_taylor     :             4
  ----------------------------------- OT ---------------------------------------

  Step     Update method      Time    Convergence         Total energy    Change
  ------------------------------------------------------------------------------
     1 OT DIIS     0.80E-01    0.9     0.00062574      -426.4122162040 -4.26E+02
     2 OT DIIS     0.80E-01    1.4     0.00035096      -426.4125402372 -3.24E-04
     3 OT DIIS     0.80E-01    1.4     0.00019128      -426.4126816055 -1.41E-04
     4 OT DIIS     0.80E-01    1.4     0.00006587      -426.4127397480 -5.81E-05
     5 OT DIIS     0.80E-01    1.4     0.00002867      -426.4127466972 -6.95E-06
     6 OT DIIS     0.80E-01    1.4     0.00001346      -426.4127480600 -1.36E-06
     7 OT DIIS     0.80E-01    1.4     0.00000628      -426.4127483893 -3.29E-07

  *** SCF run converged in     7 steps ***


  Electronic density on regular grids:       -191.9999976106        0.0000023894
  Core density on regular grids:              191.9999999876       -0.0000000124
  Total charge density on r-space grids:        0.0000023771
  Total charge density g-space grids:           0.0000023771

  Overlap energy of the core charge distribution:               0.00000003741481
  Self energy of the core charge distribution:              -1106.90238849848902
  Core Hamiltonian energy:                                    324.16409817866037
  Hartree energy:                                             457.93000882974985
  Exchange-correlation energy:                               -101.60446693659031

  Total energy:                                              -426.41274838925426

 ENERGY| Total FORCE_EVAL ( QS ) energy [hartree]           -426.412748462891784

 OPT| **************************************************************************
 OPT| Step number                                                             12
 OPT| Optimization method                                                  LBFGS
 OPT| Total energy [hartree]                                     -426.4127484629
 OPT| Effective energy change [hartree]                            -0.0009303816
 OPT| Decrease in energy                                                     YES
 OPT| Used time [s]                                                       11.932
 OPT|
 OPT| Maximum step size                                             0.0237626129
 OPT| Convergence limit for maximum step size                       0.0030000000
 OPT| Maximum step size is converged                                          NO
 OPT|
 OPT| RMS step size                                                 0.0079181330
 OPT| Convergence limit for RMS step size                           0.0015000000
 OPT| RMS step size is converged                                              NO
 OPT|
 OPT| Maximum gradient                                              0.0051929183
 OPT| Convergence limit for maximum gradient                        0.0010000000
 OPT| Maximum gradient is converged                                           NO
 OPT|
 OPT| RMS gradient                                                  0.0016471042
 OPT| Convergence limit for RMS gradient                            0.0003000000
 OPT| RMS gradient is converged                                               NO
 OPT| **************************************************************************
 OPT| Estimated peak process memory after this step [MiB]                    601

 --------------------------
 OPTIMIZATION STEP:     13
 --------------------------

 Number of electrons:                                                        192
 Number of occupied orbitals:                                                 96
 Number of molecular orbitals:                                                96

 Number of orbital functions:                                                148
 Number of independent orbital functions:                                    148

 Extrapolation method: ASPC


 SCF WAVEFUNCTION OPTIMIZATION

  ----------------------------------- OT ---------------------------------------
  Minimizer      : DIIS                : direct inversion
                                         in the iterative subspace
                                         using   7 DIIS vectors
                                         safer DIIS on
  Preconditioner : FULL_SINGLE_INVERSE : inversion of 
                                         H + eS - 2*(Sc)(c^T*H*c+const)(Sc)^T
  Precond_solver : DEFAULT
  stepsize       :    0.08000000                  energy_gap     :    0.08000000
  eps_taylor     :   0.10000E-15                  max_taylor     :             4
  ----------------------------------- OT ---------------------------------------

  Step     Update method      Time    Convergence         Total energy    Change
  ------------------------------------------------------------------------------
     1 OT DIIS     0.80E-01    0.9     0.00058231      -426.4132962863 -4.26E+02
     2 OT DIIS     0.80E-01    1.4     0.00037441      -426.4136066248 -3.10E-04
     3 OT DIIS     0.80E-01    1.4     0.00015033      -426.4138235520 -2.17E-04
     4 OT DIIS     0.80E-01    1.4     0.00005925      -426.4138603251 -3.68E-05
     5 OT DIIS     0.80E-01    1.4     0.00002280      -426.4138658802 -5.56E-06
     6 OT DIIS     0.80E-01    1.4     0.00001043      -426.4138666943 -8.14E-07
     7 OT DIIS     0.80E-01    1.4     0.00000452      -426.4138668814 -1.87E-07

  *** SCF run converged in     7 steps ***


  Electronic density on regular grids:       -191.9999974057        0.0000025943
  Core density on regular grids:              191.9999999876       -0.0000000124
  Total charge density on r-space grids:        0.0000025820
  Total charge density g-space grids:           0.0000025820

  Overlap energy of the core charge distribution:               0.00000003903011
  Self energy of the core charge distribution:              -1106.90238849848902
  Core Hamiltonian energy:                                    324.19631678011518
  Hartree energy:                                             457.90425655895172
  Exchange-correlation energy:                               -101.61205176100442

  Total energy:                                              -426.41386688139642

 ENERGY| Total FORCE_EVAL ( QS ) energy [hartree]           -426.413866917630912

 OPT| **************************************************************************
 OPT| Step number                                                             13
 OPT| Optimization method                                                  LBFGS
 OPT| Total energy [hartree]                                     -426.4138669176
 OPT| Effective energy change [hartree]                            -0.0011184547
 OPT| Decrease in energy                                                     YES
 OPT| Used time [s]                                                       11.946
 OPT|
 OPT| Maximum step size                                             0.0684746519
 OPT| Convergence limit for maximum step size                       0.0030000000
 OPT| Maximum step size is converged                                          NO
 OPT|
 OPT| RMS step size                                                 0.0190130773
 OPT| Convergence limit for RMS step size                           0.0015000000
 OPT| RMS step size is converged                                              NO
 OPT|
 OPT| Maximum gradient                                              0.0110140867
 OPT| Convergence limit for maximum gradient                        0.0010000000
 OPT| Maximum gradient is converged                                           NO
 OPT|
 OPT| RMS gradient                                                  0.0026980370
 OPT| Convergence limit for RMS gradient                            0.0003000000
 OPT| RMS gradient is converged                                               NO
 OPT| **************************************************************************
 OPT| Estimated peak process memory after this step [MiB]                    601

 --------------------------
 OPTIMIZATION STEP:     14
 --------------------------

 Number of electrons:                                                        192
 Number of occupied orbitals:                                                 96
 Number of molecular orbitals:                                                96

 Number of orbital functions:                                                148
 Number of independent orbital functions:                                    148

 Extrapolation method: ASPC


 SCF WAVEFUNCTION OPTIMIZATION

  ----------------------------------- OT ---------------------------------------
  Minimizer      : DIIS                : direct inversion
                                         in the iterative subspace
                                         using   7 DIIS vectors
                                         safer DIIS on
  Preconditioner : FULL_SINGLE_INVERSE : inversion of 
                                         H + eS - 2*(Sc)(c^T*H*c+const)(Sc)^T
  Precond_solver : DEFAULT
  stepsize       :    0.08000000                  energy_gap     :    0.08000000
  eps_taylor     :   0.10000E-15                  max_taylor     :             4
  ----------------------------------- OT ---------------------------------------

  Step     Update method      Time    Convergence         Total energy    Change
  ------------------------------------------------------------------------------
     1 OT DIIS     0.80E-01    0.9     0.00105624      -426.4128199400 -4.26E+02
     2 OT DIIS     0.80E-01    1.4     0.00066637      -426.4138210321 -1.00E-03
     3 OT DIIS     0.80E-01    1.4     0.00031712      -426.4144542763 -6.33E-04
     4 OT DIIS     0.80E-01    1.4     0.00010994      -426.4146268356 -1.73E-04
     5 OT DIIS     0.80E-01    1.4     0.00004133      -426.4146463020 -1.95E-05
     6 OT DIIS     0.80E-01    1.4     0.00001979      -426.4146489429 -2.64E-06
     7 OT DIIS     0.80E-01    1.4     0.00000899      -426.4146496167 -6.74E-07

  *** SCF run converged in     7 steps ***


  Electronic density on regular grids:       -191.9999973558        0.0000026442
  Core density on regular grids:              191.9999999876       -0.0000000124
  Total charge density on r-space grids:        0.0000026319
  Total charge density g-space grids:           0.0000026319

  Overlap energy of the core charge distribution:               0.00000003745083
  Self energy of the core charge distribution:              -1106.90238849848902
  Core Hamiltonian energy:                                    324.23702811039340
  Hartree energy:                                             457.87048290049370
  Exchange-correlation energy:                               -101.61977216651111

  Total energy:                                              -426.41464961666236

 ENERGY| Total FORCE_EVAL ( QS ) energy [hartree]           -426.414649762656325

 OPT| **************************************************************************
 OPT| Step number                                                             14
 OPT| Optimization method                                                  LBFGS
 OPT| Total energy [hartree]                                     -426.4146497627
 OPT| Effective energy change [hartree]                            -0.0007828450
 OPT| Decrease in energy                                                     YES
 OPT| Used time [s]                                                       11.947
 OPT|
 OPT| Maximum step size                                             0.0422215034
 OPT| Convergence limit for maximum step size                       0.0030000000
 OPT| Maximum step size is converged                                          NO
 OPT|
 OPT| RMS step size                                                 0.0108503944
 OPT| Convergence limit for RMS step size                           0.0015000000
 OPT| RMS step size is converged                                              NO
 OPT|
 OPT| Maximum gradient                                              0.0081051705
 OPT| Convergence limit for maximum gradient                        0.0010000000
 OPT| Maximum gradient is converged                                           NO
 OPT|
 OPT| RMS gradient                                                  0.0023112564
 OPT| Convergence limit for RMS gradient                            0.0003000000
 OPT| RMS gradient is converged                                               NO
 OPT| **************************************************************************
 OPT| Estimated peak process memory after this step [MiB]                    601

 --------------------------
 OPTIMIZATION STEP:     15
 --------------------------

 Number of electrons:                                                        192
 Number of occupied orbitals:                                                 96
 Number of molecular orbitals:                                                96

 Number of orbital functions:                                                148
 Number of independent orbital functions:                                    148

 Extrapolation method: ASPC


 SCF WAVEFUNCTION OPTIMIZATION

  ----------------------------------- OT ---------------------------------------
  Minimizer      : DIIS                : direct inversion
                                         in the iterative subspace
                                         using   7 DIIS vectors
                                         safer DIIS on
  Preconditioner : FULL_SINGLE_INVERSE : inversion of 
                                         H + eS - 2*(Sc)(c^T*H*c+const)(Sc)^T
  Precond_solver : DEFAULT
  stepsize       :    0.08000000                  energy_gap     :    0.08000000
  eps_taylor     :   0.10000E-15                  max_taylor     :             4
  ----------------------------------- OT ---------------------------------------

  Step     Update method      Time    Convergence         Total energy    Change
  ------------------------------------------------------------------------------
     1 OT DIIS     0.80E-01    0.9     0.00097026      -426.4140976962 -4.26E+02
     2 OT DIIS     0.80E-01    1.4     0.00052078      -426.4148425257 -7.45E-04
     3 OT DIIS     0.80E-01    1.4     0.00030738      -426.4151282862 -2.86E-04
     4 OT DIIS     0.80E-01    1.4     0.00010463      -426.4152817038 -1.53E-04
     5 OT DIIS     0.80E-01    1.4     0.00003829      -426.4153001143 -1.84E-05
     6 OT DIIS     0.80E-01    1.4     0.00001760      -426.4153024897 -2.38E-06
     7 OT DIIS     0.80E-01    1.4     0.00000883      -426.4153030126 -5.23E-07

  *** SCF run converged in     7 steps ***


  Electronic density on regular grids:       -191.9999972244        0.0000027756
  Core density on regular grids:              191.9999999876       -0.0000000124
  Total charge density on r-space grids:        0.0000027632
  Total charge density g-space grids:           0.0000027632

  Overlap energy of the core charge distribution:               0.00000003782939
  Self energy of the core charge distribution:              -1106.90238849848902
  Core Hamiltonian energy:                                    324.22342006008267
  Hartree energy:                                             457.88120191374179
  Exchange-correlation energy:                               -101.61753652577472

  Total energy:                                              -426.41530301261002

 ENERGY| Total FORCE_EVAL ( QS ) energy [hartree]           -426.415303163221438

 OPT| **************************************************************************
 OPT| Step number                                                             15
 OPT| Optimization method                                                  LBFGS
 OPT| Total energy [hartree]                                     -426.4153031632
 OPT| Effective energy change [hartree]                            -0.0006534006
 OPT| Decrease in energy                                                     YES
 OPT| Used time [s]                                                       11.954
 OPT|
 OPT| Maximum step size                                             0.0104720832
 OPT| Convergence limit for maximum step size                       0.0030000000
 OPT| Maximum step size is converged                                          NO
 OPT|
 OPT| RMS step size                                                 0.0035708864
 OPT| Convergence limit for RMS step size                           0.0015000000
 OPT| RMS step size is converged                                              NO
 OPT|
 OPT| Maximum gradient                                              0.0044134700
 OPT| Convergence limit for maximum gradient                        0.0010000000
 OPT| Maximum gradient is converged                                           NO
 OPT|
 OPT| RMS gradient                                                  0.0015669702
 OPT| Convergence limit for RMS gradient                            0.0003000000
 OPT| RMS gradient is converged                                               NO
 OPT| **************************************************************************
 OPT| Estimated peak process memory after this step [MiB]                    601

 --------------------------
 OPTIMIZATION STEP:     16
 --------------------------

 Number of electrons:                                                        192
 Number of occupied orbitals:                                                 96
 Number of molecular orbitals:                                                96

 Number of orbital functions:                                                148
 Number of independent orbital functions:                                    148

 Extrapolation method: ASPC


 SCF WAVEFUNCTION OPTIMIZATION

  ----------------------------------- OT ---------------------------------------
  Minimizer      : DIIS                : direct inversion
                                         in the iterative subspace
                                         using   7 DIIS vectors
                                         safer DIIS on
  Preconditioner : FULL_SINGLE_INVERSE : inversion of 
                                         H + eS - 2*(Sc)(c^T*H*c+const)(Sc)^T
  Precond_solver : DEFAULT
  stepsize       :    0.08000000                  energy_gap     :    0.08000000
  eps_taylor     :   0.10000E-15                  max_taylor     :             4
  ----------------------------------- OT ---------------------------------------

  Step     Update method      Time    Convergence         Total energy    Change
  ------------------------------------------------------------------------------
     1 OT DIIS     0.80E-01    0.9     0.00089385      -426.4149385998 -4.26E+02
     2 OT DIIS     0.80E-01    1.4     0.00055550      -426.4156401354 -7.02E-04
     3 OT DIIS     0.80E-01    1.4     0.00029995      -426.4160434959 -4.03E-04
     4 OT DIIS     0.80E-01    1.4     0.00009283      -426.4162016926 -1.58E-04
     5 OT DIIS     0.80E-01    1.4     0.00003348      -426.4162157298 -1.40E-05
     6 OT DIIS     0.80E-01    1.4     0.00001579      -426.4162174481 -1.72E-06
     7 OT DIIS     0.80E-01    1.4     0.00000708      -426.4162178696 -4.21E-07

  *** SCF run converged in     7 steps ***


  Electronic density on regular grids:       -191.9999969367        0.0000030633
  Core density on regular grids:              191.9999999877       -0.0000000123
  Total charge density on r-space grids:        0.0000030509
  Total charge density g-space grids:           0.0000030509

  Overlap energy of the core charge distribution:               0.00000003609300
  Self energy of the core charge distribution:              -1106.90238849848902
  Core Hamiltonian energy:                                    324.19046290061868
  Hartree energy:                                             457.90523554218629
  Exchange-correlation energy:                               -101.60952785003660

  Total energy:                                              -426.41621786962753

 ENERGY| Total FORCE_EVAL ( QS ) energy [hartree]           -426.416217958999027

 OPT| **************************************************************************
 OPT| Step number                                                             16
 OPT| Optimization method                                                  LBFGS
 OPT| Total energy [hartree]                                     -426.4162179590
 OPT| Effective energy change [hartree]                            -0.0009147958
 OPT| Decrease in energy                                                     YES
 OPT| Used time [s]                                                       11.958
 OPT|
 OPT| Maximum step size                                             0.0543447432
 OPT| Convergence limit for maximum step size                       0.0030000000
 OPT| Maximum step size is converged                                          NO
 OPT|
 OPT| RMS step size                                                 0.0139382535
 OPT| Convergence limit for RMS step size                           0.0015000000
 OPT| RMS step size is converged                                              NO
 OPT|
 OPT| Maximum gradient                                              0.0040566414
 OPT| Convergence limit for maximum gradient                        0.0010000000
 OPT| Maximum gradient is converged                                           NO
 OPT|
 OPT| RMS gradient                                                  0.0014435692
 OPT| Convergence limit for RMS gradient                            0.0003000000
 OPT| RMS gradient is converged                                               NO
 OPT| **************************************************************************
 OPT| Estimated peak process memory after this step [MiB]                    606

 --------------------------
 OPTIMIZATION STEP:     17
 --------------------------

 Number of electrons:                                                        192
 Number of occupied orbitals:                                                 96
 Number of molecular orbitals:                                                96

 Number of orbital functions:                                                148
 Number of independent orbital functions:                                    148

 Extrapolation method: ASPC


 SCF WAVEFUNCTION OPTIMIZATION

  ----------------------------------- OT ---------------------------------------
  Minimizer      : DIIS                : direct inversion
                                         in the iterative subspace
                                         using   7 DIIS vectors
                                         safer DIIS on
  Preconditioner : FULL_SINGLE_INVERSE : inversion of 
                                         H + eS - 2*(Sc)(c^T*H*c+const)(Sc)^T
  Precond_solver : DEFAULT
  stepsize       :    0.08000000                  energy_gap     :    0.08000000
  eps_taylor     :   0.10000E-15                  max_taylor     :             4
  ----------------------------------- OT ---------------------------------------

  Step     Update method      Time    Convergence         Total energy    Change
  ------------------------------------------------------------------------------
     1 OT DIIS     0.80E-01    0.9     0.00094816      -426.4151649159 -4.26E+02
     2 OT DIIS     0.80E-01    1.4     0.00060282      -426.4159723231 -8.07E-04
     3 OT DIIS     0.80E-01    1.4     0.00029725      -426.4164900215 -5.18E-04
     4 OT DIIS     0.80E-01    1.4     0.00009566      -426.4166472021 -1.57E-04
     5 OT DIIS     0.80E-01    1.4     0.00003805      -426.4166618074 -1.46E-05
     6 OT DIIS     0.80E-01    1.4     0.00001824      -426.4166640744 -2.27E-06
     7 OT DIIS     0.80E-01    1.4     0.00000812      -426.4166646636 -5.89E-07

  *** SCF run converged in     7 steps ***


  Electronic density on regular grids:       -191.9999968074        0.0000031926
  Core density on regular grids:              191.9999999877       -0.0000000123
  Total charge density on r-space grids:        0.0000031802
  Total charge density g-space grids:           0.0000031802

  Overlap energy of the core charge distribution:               0.00000003989826
  Self energy of the core charge distribution:              -1106.90238849848902
  Core Hamiltonian energy:                                    324.19342685581995
  Hartree energy:                                             457.90488605280780
  Exchange-correlation energy:                               -101.61258911360575

  Total energy:                                              -426.41666466356878

 ENERGY| Total FORCE_EVAL ( QS ) energy [hartree]           -426.416664781670022

 OPT| **************************************************************************
 OPT| Step number                                                             17
 OPT| Optimization method                                                  LBFGS
 OPT| Total energy [hartree]                                     -426.4166647817
 OPT| Effective energy change [hartree]                            -0.0004468227
 OPT| Decrease in energy                                                     YES
 OPT| Used time [s]                                                       11.970
 OPT|
 OPT| Maximum step size                                             0.0346364838
 OPT| Convergence limit for maximum step size                       0.0030000000
 OPT| Maximum step size is converged                                          NO
 OPT|
 OPT| RMS step size                                                 0.0096220147
 OPT| Convergence limit for RMS step size                           0.0015000000
 OPT| RMS step size is converged                                              NO
 OPT|
 OPT| Maximum gradient                                              0.0113667718
 OPT| Convergence limit for maximum gradient                        0.0010000000
 OPT| Maximum gradient is converged                                           NO
 OPT|
 OPT| RMS gradient                                                  0.0021054620
 OPT| Convergence limit for RMS gradient                            0.0003000000
 OPT| RMS gradient is converged                                               NO
 OPT| **************************************************************************
 OPT| Estimated peak process memory after this step [MiB]                    606

 --------------------------
 OPTIMIZATION STEP:     18
 --------------------------

 Number of electrons:                                                        192
 Number of occupied orbitals:                                                 96
 Number of molecular orbitals:                                                96

 Number of orbital functions:                                                148
 Number of independent orbital functions:                                    148

 Extrapolation method: ASPC


 SCF WAVEFUNCTION OPTIMIZATION

  ----------------------------------- OT ---------------------------------------
  Minimizer      : DIIS                : direct inversion
                                         in the iterative subspace
                                         using   7 DIIS vectors
                                         safer DIIS on
  Preconditioner : FULL_SINGLE_INVERSE : inversion of 
                                         H + eS - 2*(Sc)(c^T*H*c+const)(Sc)^T
  Precond_solver : DEFAULT
  stepsize       :    0.08000000                  energy_gap     :    0.08000000
  eps_taylor     :   0.10000E-15                  max_taylor     :             4
  ----------------------------------- OT ---------------------------------------

  Step     Update method      Time    Convergence         Total energy    Change
  ------------------------------------------------------------------------------
     1 OT DIIS     0.80E-01    0.9     0.00064578      -426.4165154048 -4.26E+02
     2 OT DIIS     0.80E-01    1.4     0.00038326      -426.4168753495 -3.60E-04
     3 OT DIIS     0.80E-01    1.4     0.00019870      -426.4170635286 -1.88E-04
     4 OT DIIS     0.80E-01    1.4     0.00007110      -426.4171296420 -6.61E-05
     5 OT DIIS     0.80E-01    1.4     0.00002738      -426.4171379730 -8.33E-06
     6 OT DIIS     0.80E-01    1.4     0.00001234      -426.4171391797 -1.21E-06
     7 OT DIIS     0.80E-01    1.4     0.00000580      -426.4171394337 -2.54E-07

  *** SCF run converged in     7 steps ***


  Electronic density on regular grids:       -191.9999967238        0.0000032762
  Core density on regular grids:              191.9999999876       -0.0000000124
  Total charge density on r-space grids:        0.0000032638
  Total charge density g-space grids:           0.0000032638

  Overlap energy of the core charge distribution:               0.00000003812301
  Self energy of the core charge distribution:              -1106.90238849848902
  Core Hamiltonian energy:                                    324.18792411482974
  Hartree energy:                                             457.90748437569999
  Exchange-correlation energy:                               -101.61015946388979

  Total energy:                                              -426.41713943372605

 ENERGY| Total FORCE_EVAL ( QS ) energy [hartree]           -426.417139495055267

 OPT| **************************************************************************
 OPT| Step number                                                             18
 OPT| Optimization method                                                  LBFGS
 OPT| Total energy [hartree]                                     -426.4171394951
 OPT| Effective energy change [hartree]                            -0.0004747134
 OPT| Decrease in energy                                                     YES
 OPT| Used time [s]                                                       11.938
 OPT|
 OPT| Maximum step size                                             0.0283856755
 OPT| Convergence limit for maximum step size                       0.0030000000
 OPT| Maximum step size is converged                                          NO
 OPT|
 OPT| RMS step size                                                 0.0069927381
 OPT| Convergence limit for RMS step size                           0.0015000000
 OPT| RMS step size is converged                                              NO
 OPT|
 OPT| Maximum gradient                                              0.0043326862
 OPT| Convergence limit for maximum gradient                        0.0010000000
 OPT| Maximum gradient is converged                                           NO
 OPT|
 OPT| RMS gradient                                                  0.0013688856
 OPT| Convergence limit for RMS gradient                            0.0003000000
 OPT| RMS gradient is converged                                               NO
 OPT| **************************************************************************
 OPT| Estimated peak process memory after this step [MiB]                    607

 --------------------------
 OPTIMIZATION STEP:     19
 --------------------------

 Number of electrons:                                                        192
 Number of occupied orbitals:                                                 96
 Number of molecular orbitals:                                                96

 Number of orbital functions:                                                148
 Number of independent orbital functions:                                    148

 Extrapolation method: ASPC


 SCF WAVEFUNCTION OPTIMIZATION

  ----------------------------------- OT ---------------------------------------
  Minimizer      : DIIS                : direct inversion
                                         in the iterative subspace
                                         using   7 DIIS vectors
                                         safer DIIS on
  Preconditioner : FULL_SINGLE_INVERSE : inversion of 
                                         H + eS - 2*(Sc)(c^T*H*c+const)(Sc)^T
  Precond_solver : DEFAULT
  stepsize       :    0.08000000                  energy_gap     :    0.08000000
  eps_taylor     :   0.10000E-15                  max_taylor     :             4
  ----------------------------------- OT ---------------------------------------

  Step     Update method      Time    Convergence         Total energy    Change
  ------------------------------------------------------------------------------
     1 OT DIIS     0.80E-01    0.9     0.00041831      -426.4174386490 -4.26E+02
     2 OT DIIS     0.80E-01    1.4     0.00024766      -426.4175906002 -1.52E-04
     3 OT DIIS     0.80E-01    1.4     0.00012167      -426.4176713724 -8.08E-05
     4 OT DIIS     0.80E-01    1.4     0.00004484      -426.4176955954 -2.42E-05
     5 OT DIIS     0.80E-01    1.4     0.00001753      -426.4176988008 -3.21E-06
     6 OT DIIS     0.80E-01    1.4     0.00000741      -426.4176992872 -4.86E-07

  *** SCF run converged in     6 steps ***


  Electronic density on regular grids:       -191.9999966047        0.0000033953
  Core density on regular grids:              191.9999999875       -0.0000000125
  Total charge density on r-space grids:        0.0000033828
  Total charge density g-space grids:           0.0000033828

  Overlap energy of the core charge distribution:               0.00000003649436
  Self energy of the core charge distribution:              -1106.90238849848902
  Core Hamiltonian energy:                                    324.17391902941779
  Hartree energy:                                             457.91670932009771
  Exchange-correlation energy:                               -101.60593917474729

  Total energy:                                              -426.41769928722641

 ENERGY| Total FORCE_EVAL ( QS ) energy [hartree]           -426.417699376918620

 OPT| **************************************************************************
 OPT| Step number                                                             19
 OPT| Optimization method                                                  LBFGS
 OPT| Total energy [hartree]                                     -426.4176993769
 OPT| Effective energy change [hartree]                            -0.0005598819
 OPT| Decrease in energy                                                     YES
 OPT| Used time [s]                                                       10.587
 OPT|
 OPT| Maximum step size                                             0.0291575316
 OPT| Convergence limit for maximum step size                       0.0030000000
 OPT| Maximum step size is converged                                          NO
 OPT|
 OPT| RMS step size                                                 0.0081348895
 OPT| Convergence limit for RMS step size                           0.0015000000
 OPT| RMS step size is converged                                              NO
 OPT|
 OPT| Maximum gradient                                              0.0042854977
 OPT| Convergence limit for maximum gradient                        0.0010000000
 OPT| Maximum gradient is converged                                           NO
 OPT|
 OPT| RMS gradient                                                  0.0012442524
 OPT| Convergence limit for RMS gradient                            0.0003000000
 OPT| RMS gradient is converged                                               NO
 OPT| **************************************************************************
 OPT| Estimated peak process memory after this step [MiB]                    607

 --------------------------
 OPTIMIZATION STEP:     20
 --------------------------

 Number of electrons:                                                        192
 Number of occupied orbitals:                                                 96
 Number of molecular orbitals:                                                96

 Number of orbital functions:                                                148
 Number of independent orbital functions:                                    148

 Extrapolation method: ASPC


 SCF WAVEFUNCTION OPTIMIZATION

  ----------------------------------- OT ---------------------------------------
  Minimizer      : DIIS                : direct inversion
                                         in the iterative subspace
                                         using   7 DIIS vectors
                                         safer DIIS on
  Preconditioner : FULL_SINGLE_INVERSE : inversion of 
                                         H + eS - 2*(Sc)(c^T*H*c+const)(Sc)^T
  Precond_solver : DEFAULT
  stepsize       :    0.08000000                  energy_gap     :    0.08000000
  eps_taylor     :   0.10000E-15                  max_taylor     :             4
  ----------------------------------- OT ---------------------------------------

  Step     Update method      Time    Convergence         Total energy    Change
  ------------------------------------------------------------------------------
     1 OT DIIS     0.80E-01    0.9     0.00035741      -426.4180383632 -4.26E+02
     2 OT DIIS     0.80E-01    1.4     0.00021355      -426.4181479158 -1.10E-04
     3 OT DIIS     0.80E-01    1.4     0.00011847      -426.4182047861 -5.69E-05
     4 OT DIIS     0.80E-01    1.4     0.00003821      -426.4182291425 -2.44E-05
     5 OT DIIS     0.80E-01    1.4     0.00001526      -426.4182314891 -2.35E-06
     6 OT DIIS     0.80E-01    1.4     0.00000711      -426.4182318430 -3.54E-07

  *** SCF run converged in     6 steps ***


  Electronic density on regular grids:       -191.9999963997        0.0000036003
  Core density on regular grids:              191.9999999873       -0.0000000127
  Total charge density on r-space grids:        0.0000035875
  Total charge density g-space grids:           0.0000035875

  Overlap energy of the core charge distribution:               0.00000003592106
  Self energy of the core charge distribution:              -1106.90238849848902
  Core Hamiltonian energy:                                    324.14579277479777
  Hartree energy:                                             457.93760312934091
  Exchange-correlation energy:                               -101.59923928460732

  Total energy:                                              -426.41823184303672

 ENERGY| Total FORCE_EVAL ( QS ) energy [hartree]           -426.418231927536169

 OPT| **************************************************************************
 OPT| Step number                                                             20
 OPT| Optimization method                                                  LBFGS
 OPT| Total energy [hartree]                                     -426.4182319275
 OPT| Effective energy change [hartree]                            -0.0005325506
 OPT| Decrease in energy                                                     YES
 OPT| Used time [s]                                                       10.585
 OPT|
 OPT| Maximum step size                                             0.0482394069
 OPT| Convergence limit for maximum step size                       0.0030000000
 OPT| Maximum step size is converged                                          NO
 OPT|
 OPT| RMS step size                                                 0.0118952005
 OPT| Convergence limit for RMS step size                           0.0015000000
 OPT| RMS step size is converged                                              NO
 OPT|
 OPT| Maximum gradient                                              0.0069108319
 OPT| Convergence limit for maximum gradient                        0.0010000000
 OPT| Maximum gradient is converged                                           NO
 OPT|
 OPT| RMS gradient                                                  0.0015683655
 OPT| Convergence limit for RMS gradient                            0.0003000000
 OPT| RMS gradient is converged                                               NO
 OPT| **************************************************************************
 OPT| Estimated peak process memory after this step [MiB]                    609

 --------------------------
 OPTIMIZATION STEP:     21
 --------------------------

 Number of electrons:                                                        192
 Number of occupied orbitals:                                                 96
 Number of molecular orbitals:                                                96

 Number of orbital functions:                                                148
 Number of independent orbital functions:                                    148

 Extrapolation method: ASPC


 SCF WAVEFUNCTION OPTIMIZATION

  ----------------------------------- OT ---------------------------------------
  Minimizer      : DIIS                : direct inversion
                                         in the iterative subspace
                                         using   7 DIIS vectors
                                         safer DIIS on
  Preconditioner : FULL_SINGLE_INVERSE : inversion of 
                                         H + eS - 2*(Sc)(c^T*H*c+const)(Sc)^T
  Precond_solver : DEFAULT
  stepsize       :    0.08000000                  energy_gap     :    0.08000000
  eps_taylor     :   0.10000E-15                  max_taylor     :             4
  ----------------------------------- OT ---------------------------------------

  Step     Update method      Time    Convergence         Total energy    Change
  ------------------------------------------------------------------------------
     1 OT DIIS     0.80E-01    0.9     0.00055052      -426.4180749987 -4.26E+02
     2 OT DIIS     0.80E-01    1.4     0.00035471      -426.4183481447 -2.73E-04
     3 OT DIIS     0.80E-01    1.4     0.00017925      -426.4185263722 -1.78E-04
     4 OT DIIS     0.80E-01    1.4     0.00005366      -426.4185840148 -5.76E-05
     5 OT DIIS     0.80E-01    1.4     0.00002106      -426.4185884901 -4.48E-06
     6 OT DIIS     0.80E-01    1.4     0.00001047      -426.4185891305 -6.40E-07
     7 OT DIIS     0.80E-01    1.4     0.00000457      -426.4185893155 -1.85E-07

  *** SCF run converged in     7 steps ***


  Electronic density on regular grids:       -191.9999962636        0.0000037364
  Core density on regular grids:              191.9999999873       -0.0000000127
  Total charge density on r-space grids:        0.0000037237
  Total charge density g-space grids:           0.0000037237

  Overlap energy of the core charge distribution:               0.00000003399044
  Self energy of the core charge distribution:              -1106.90238849848902
  Core Hamiltonian energy:                                    324.07895688075678
  Hartree energy:                                             457.98735419659147
  Exchange-correlation energy:                               -101.58251192835225

  Total energy:                                              -426.41858931550246

 ENERGY| Total FORCE_EVAL ( QS ) energy [hartree]           -426.418589352484446

 OPT| **************************************************************************
 OPT| Step number                                                             21
 OPT| Optimization method                                                  LBFGS
 OPT| Total energy [hartree]                                     -426.4185893525
 OPT| Effective energy change [hartree]                            -0.0003574249
 OPT| Decrease in energy                                                     YES
 OPT| Used time [s]                                                       11.951
 OPT|
 OPT| Maximum step size                                             0.1070802153
 OPT| Convergence limit for maximum step size                       0.0030000000
 OPT| Maximum step size is converged                                          NO
 OPT|
 OPT| RMS step size                                                 0.0254708062
 OPT| Convergence limit for RMS step size                           0.0015000000
 OPT| RMS step size is converged                                              NO
 OPT|
 OPT| Maximum gradient                                              0.0122082678
 OPT| Convergence limit for maximum gradient                        0.0010000000
 OPT| Maximum gradient is converged                                           NO
 OPT|
 OPT| RMS gradient                                                  0.0026722564
 OPT| Convergence limit for RMS gradient                            0.0003000000
 OPT| RMS gradient is converged                                               NO
 OPT| **************************************************************************
 OPT| Estimated peak process memory after this step [MiB]                    613

 --------------------------
 OPTIMIZATION STEP:     22
 --------------------------

 Number of electrons:                                                        192
 Number of occupied orbitals:                                                 96
 Number of molecular orbitals:                                                96

 Number of orbital functions:                                                148
 Number of independent orbital functions:                                    148

 Extrapolation method: ASPC


 SCF WAVEFUNCTION OPTIMIZATION

  ----------------------------------- OT ---------------------------------------
  Minimizer      : DIIS                : direct inversion
                                         in the iterative subspace
                                         using   7 DIIS vectors
                                         safer DIIS on
  Preconditioner : FULL_SINGLE_INVERSE : inversion of 
                                         H + eS - 2*(Sc)(c^T*H*c+const)(Sc)^T
  Precond_solver : DEFAULT
  stepsize       :    0.08000000                  energy_gap     :    0.08000000
  eps_taylor     :   0.10000E-15                  max_taylor     :             4
  ----------------------------------- OT ---------------------------------------

  Step     Update method      Time    Convergence         Total energy    Change
  ------------------------------------------------------------------------------
     1 OT DIIS     0.80E-01    0.9     0.00166457      -426.4142220058 -4.26E+02
     2 OT DIIS     0.80E-01    1.4     0.00112957      -426.4168248493 -2.60E-03
     3 OT DIIS     0.80E-01    1.4     0.00042276      -426.4189935703 -2.17E-03
     4 OT DIIS     0.80E-01    1.4     0.00013550      -426.4193080481 -3.14E-04
     5 OT DIIS     0.80E-01    1.4     0.00005718      -426.4193343555 -2.63E-05
     6 OT DIIS     0.80E-01    1.4     0.00002802      -426.4193391232 -4.77E-06
     7 OT DIIS     0.80E-01    1.4     0.00001189      -426.4193404764 -1.35E-06
     8 OT DIIS     0.80E-01    1.4     0.00000609      -426.4193407216 -2.45E-07

  *** SCF run converged in     8 steps ***


  Electronic density on regular grids:       -191.9999961226        0.0000038774
  Core density on regular grids:              191.9999999873       -0.0000000127
  Total charge density on r-space grids:        0.0000038646
  Total charge density g-space grids:           0.0000038646

  Overlap energy of the core charge distribution:               0.00000003655405
  Self energy of the core charge distribution:              -1106.90238849848902
  Core Hamiltonian energy:                                    324.08537769762262
  Hartree energy:                                             457.98420521067862
  Exchange-correlation energy:                               -101.58653516792241

  Total energy:                                              -426.41934072155630

 ENERGY| Total FORCE_EVAL ( QS ) energy [hartree]           -426.419340792982780

 OPT| **************************************************************************
 OPT| Step number                                                             22
 OPT| Optimization method                                                  LBFGS
 OPT| Total energy [hartree]                                     -426.4193407930
 OPT| Effective energy change [hartree]                            -0.0007514405
 OPT| Decrease in energy                                                     YES
 OPT| Used time [s]                                                       13.332
 OPT|
 OPT| Maximum step size                                             0.0130668791
 OPT| Convergence limit for maximum step size                       0.0030000000
 OPT| Maximum step size is converged                                          NO
 OPT|
 OPT| RMS step size                                                 0.0042801247
 OPT| Convergence limit for RMS step size                           0.0015000000
 OPT| RMS step size is converged                                              NO
 OPT|
 OPT| Maximum gradient                                              0.0057386032
 OPT| Convergence limit for maximum gradient                        0.0010000000
 OPT| Maximum gradient is converged                                           NO
 OPT|
 OPT| RMS gradient                                                  0.0015285722
 OPT| Convergence limit for RMS gradient                            0.0003000000
 OPT| RMS gradient is converged                                               NO
 OPT| **************************************************************************
 OPT| Estimated peak process memory after this step [MiB]                    613

 --------------------------
 OPTIMIZATION STEP:     23
 --------------------------

 Number of electrons:                                                        192
 Number of occupied orbitals:                                                 96
 Number of molecular orbitals:                                                96

 Number of orbital functions:                                                148
 Number of independent orbital functions:                                    148

 Extrapolation method: ASPC


 SCF WAVEFUNCTION OPTIMIZATION

  ----------------------------------- OT ---------------------------------------
  Minimizer      : DIIS                : direct inversion
                                         in the iterative subspace
                                         using   7 DIIS vectors
                                         safer DIIS on
  Preconditioner : FULL_SINGLE_INVERSE : inversion of 
                                         H + eS - 2*(Sc)(c^T*H*c+const)(Sc)^T
  Precond_solver : DEFAULT
  stepsize       :    0.08000000                  energy_gap     :    0.08000000
  eps_taylor     :   0.10000E-15                  max_taylor     :             4
  ----------------------------------- OT ---------------------------------------

  Step     Update method      Time    Convergence         Total energy    Change
  ------------------------------------------------------------------------------
     1 OT DIIS     0.80E-01    0.9     0.00154460      -426.4154129174 -4.26E+02
     2 OT DIIS     0.80E-01    1.4     0.00105117      -426.4176607909 -2.25E-03
     3 OT DIIS     0.80E-01    1.4     0.00037397      -426.4195678802 -1.91E-03
     4 OT DIIS     0.80E-01    1.4     0.00012640      -426.4198094768 -2.42E-04
     5 OT DIIS     0.80E-01    1.4     0.00005165      -426.4198323528 -2.29E-05
     6 OT DIIS     0.80E-01    1.4     0.00002477      -426.4198362607 -3.91E-06
     7 OT DIIS     0.80E-01    1.4     0.00001034      -426.4198373085 -1.05E-06
     8 OT DIIS     0.80E-01    1.4     0.00000498      -426.4198374942 -1.86E-07

  *** SCF run converged in     8 steps ***


  Electronic density on regular grids:       -191.9999960386        0.0000039614
  Core density on regular grids:              191.9999999874       -0.0000000126
  Total charge density on r-space grids:        0.0000039488
  Total charge density g-space grids:           0.0000039488

  Overlap energy of the core charge distribution:               0.00000003784760
  Self energy of the core charge distribution:              -1106.90238849848902
  Core Hamiltonian energy:                                    324.08152956461208
  Hartree energy:                                             457.98797696419706
  Exchange-correlation energy:                               -101.58695556232897

  Total energy:                                              -426.41983749416113

 ENERGY| Total FORCE_EVAL ( QS ) energy [hartree]           -426.419837538332899

 OPT| **************************************************************************
 OPT| Step number                                                             23
 OPT| Optimization method                                                  LBFGS
 OPT| Total energy [hartree]                                     -426.4198375383
 OPT| Effective energy change [hartree]                            -0.0004967454
 OPT| Decrease in energy                                                     YES
 OPT| Used time [s]                                                       13.340
 OPT|
 OPT| Maximum step size                                             0.0204689688
 OPT| Convergence limit for maximum step size                       0.0030000000
 OPT| Maximum step size is converged                                          NO
 OPT|
 OPT| RMS step size                                                 0.0055538025
 OPT| Convergence limit for RMS step size                           0.0015000000
 OPT| RMS step size is converged                                              NO
 OPT|
 OPT| Maximum gradient                                              0.0051110910
 OPT| Convergence limit for maximum gradient                        0.0010000000
 OPT| Maximum gradient is converged                                           NO
 OPT|
 OPT| RMS gradient                                                  0.0013998238
 OPT| Convergence limit for RMS gradient                            0.0003000000
 OPT| RMS gradient is converged                                               NO
 OPT| **************************************************************************
 OPT| Estimated peak process memory after this step [MiB]                    613

 --------------------------
 OPTIMIZATION STEP:     24
 --------------------------

 Number of electrons:                                                        192
 Number of occupied orbitals:                                                 96
 Number of molecular orbitals:                                                96

 Number of orbital functions:                                                148
 Number of independent orbital functions:                                    148

 Extrapolation method: ASPC


 SCF WAVEFUNCTION OPTIMIZATION

  ----------------------------------- OT ---------------------------------------
  Minimizer      : DIIS                : direct inversion
                                         in the iterative subspace
                                         using   7 DIIS vectors
                                         safer DIIS on
  Preconditioner : FULL_SINGLE_INVERSE : inversion of 
                                         H + eS - 2*(Sc)(c^T*H*c+const)(Sc)^T
  Precond_solver : DEFAULT
  stepsize       :    0.08000000                  energy_gap     :    0.08000000
  eps_taylor     :   0.10000E-15                  max_taylor     :             4
  ----------------------------------- OT ---------------------------------------

  Step     Update method      Time    Convergence         Total energy    Change
  ------------------------------------------------------------------------------
     1 OT DIIS     0.80E-01    0.9     0.00048581      -426.4199007595 -4.26E+02
     2 OT DIIS     0.80E-01    1.4     0.00029760      -426.4201090038 -2.08E-04
     3 OT DIIS     0.80E-01    1.4     0.00014628      -426.4202296464 -1.21E-04
     4 OT DIIS     0.80E-01    1.4     0.00005192      -426.4202656480 -3.60E-05
     5 OT DIIS     0.80E-01    1.4     0.00002056      -426.4202699057 -4.26E-06
     6 OT DIIS     0.80E-01    1.4     0.00000967      -426.4202705430 -6.37E-07

  *** SCF run converged in     6 steps ***


  Electronic density on regular grids:       -191.9999960942        0.0000039058
  Core density on regular grids:              191.9999999875       -0.0000000125
  Total charge density on r-space grids:        0.0000038933
  Total charge density g-space grids:           0.0000038933

  Overlap energy of the core charge distribution:               0.00000003730244
  Self energy of the core charge distribution:              -1106.90238849848902
  Core Hamiltonian energy:                                    324.04109538384768
  Hartree energy:                                             458.01879188276718
  Exchange-correlation energy:                               -101.57776934839414

  Total energy:                                              -426.42027054296580

 ENERGY| Total FORCE_EVAL ( QS ) energy [hartree]           -426.420270701050526

 OPT| **************************************************************************
 OPT| Step number                                                             24
 OPT| Optimization method                                                  LBFGS
 OPT| Total energy [hartree]                                     -426.4202707011
 OPT| Effective energy change [hartree]                            -0.0004331627
 OPT| Decrease in energy                                                     YES
 OPT| Used time [s]                                                       10.586
 OPT|
 OPT| Maximum step size                                             0.0931051593
 OPT| Convergence limit for maximum step size                       0.0030000000
 OPT| Maximum step size is converged                                          NO
 OPT|
 OPT| RMS step size                                                 0.0212959699
 OPT| Convergence limit for RMS step size                           0.0015000000
 OPT| RMS step size is converged                                              NO
 OPT|
 OPT| Maximum gradient                                              0.0093983477
 OPT| Convergence limit for maximum gradient                        0.0010000000
 OPT| Maximum gradient is converged                                           NO
 OPT|
 OPT| RMS gradient                                                  0.0020630884
 OPT| Convergence limit for RMS gradient                            0.0003000000
 OPT| RMS gradient is converged                                               NO
 OPT| **************************************************************************
 OPT| Estimated peak process memory after this step [MiB]                    617

 --------------------------
 OPTIMIZATION STEP:     25
 --------------------------

 Number of electrons:                                                        192
 Number of occupied orbitals:                                                 96
 Number of molecular orbitals:                                                96

 Number of orbital functions:                                                148
 Number of independent orbital functions:                                    148

 Extrapolation method: ASPC


 SCF WAVEFUNCTION OPTIMIZATION

  ----------------------------------- OT ---------------------------------------
  Minimizer      : DIIS                : direct inversion
                                         in the iterative subspace
                                         using   7 DIIS vectors
                                         safer DIIS on
  Preconditioner : FULL_SINGLE_INVERSE : inversion of 
                                         H + eS - 2*(Sc)(c^T*H*c+const)(Sc)^T
  Precond_solver : DEFAULT
  stepsize       :    0.08000000                  energy_gap     :    0.08000000
  eps_taylor     :   0.10000E-15                  max_taylor     :             4
  ----------------------------------- OT ---------------------------------------

  Step     Update method      Time    Convergence         Total energy    Change
  ------------------------------------------------------------------------------
     1 OT DIIS     0.80E-01    0.9     0.00121421      -426.4181431779 -4.26E+02
     2 OT DIIS     0.80E-01    1.4     0.00082466      -426.4195272227 -1.38E-03
     3 OT DIIS     0.80E-01    1.4     0.00031515      -426.4206811477 -1.15E-03
     4 OT DIIS     0.80E-01    1.4     0.00009154      -426.4208644910 -1.83E-04
     5 OT DIIS     0.80E-01    1.4     0.00004137      -426.4208760572 -1.16E-05
     6 OT DIIS     0.80E-01    1.4     0.00001986      -426.4208785870 -2.53E-06
     7 OT DIIS     0.80E-01    1.4     0.00000797      -426.4208792801 -6.93E-07

  *** SCF run converged in     7 steps ***


  Electronic density on regular grids:       -191.9999960541        0.0000039459
  Core density on regular grids:              191.9999999875       -0.0000000125
  Total charge density on r-space grids:        0.0000039334
  Total charge density g-space grids:           0.0000039334

  Overlap energy of the core charge distribution:               0.00000003715787
  Self energy of the core charge distribution:              -1106.90238849848902
  Core Hamiltonian energy:                                    324.06936982623995
  Hartree energy:                                             457.99654308789678
  Exchange-correlation energy:                               -101.58440373288691

  Total energy:                                              -426.42087928008135

 ENERGY| Total FORCE_EVAL ( QS ) energy [hartree]           -426.420879388349761

 OPT| **************************************************************************
 OPT| Step number                                                             25
 OPT| Optimization method                                                  LBFGS
 OPT| Total energy [hartree]                                     -426.4208793883
 OPT| Effective energy change [hartree]                            -0.0006086873
 OPT| Decrease in energy                                                     YES
 OPT| Used time [s]                                                       11.963
 OPT|
 OPT| Maximum step size                                             0.0249559038
 OPT| Convergence limit for maximum step size                       0.0030000000
 OPT| Maximum step size is converged                                          NO
 OPT|
 OPT| RMS step size                                                 0.0071540148
 OPT| Convergence limit for RMS step size                           0.0015000000
 OPT| RMS step size is converged                                              NO
 OPT|
 OPT| Maximum gradient                                              0.0059457641
 OPT| Convergence limit for maximum gradient                        0.0010000000
 OPT| Maximum gradient is converged                                           NO
 OPT|
 OPT| RMS gradient                                                  0.0015355618
 OPT| Convergence limit for RMS gradient                            0.0003000000
 OPT| RMS gradient is converged                                               NO
 OPT| **************************************************************************
 OPT| Estimated peak process memory after this step [MiB]                    617

 --------------------------
 OPTIMIZATION STEP:     26
 --------------------------

 Number of electrons:                                                        192
 Number of occupied orbitals:                                                 96
 Number of molecular orbitals:                                                96

 Number of orbital functions:                                                148
 Number of independent orbital functions:                                    148

 Extrapolation method: ASPC


 SCF WAVEFUNCTION OPTIMIZATION

  ----------------------------------- OT ---------------------------------------
  Minimizer      : DIIS                : direct inversion
                                         in the iterative subspace
                                         using   7 DIIS vectors
                                         safer DIIS on
  Preconditioner : FULL_SINGLE_INVERSE : inversion of 
                                         H + eS - 2*(Sc)(c^T*H*c+const)(Sc)^T
  Precond_solver : DEFAULT
  stepsize       :    0.08000000                  energy_gap     :    0.08000000
  eps_taylor     :   0.10000E-15                  max_taylor     :             4
  ----------------------------------- OT ---------------------------------------

  Step     Update method      Time    Convergence         Total energy    Change
  ------------------------------------------------------------------------------
     1 OT DIIS     0.80E-01    0.9     0.00134835      -426.4179504070 -4.26E+02
     2 OT DIIS     0.80E-01    1.4     0.00091231      -426.4196534969 -1.70E-03
     3 OT DIIS     0.80E-01    1.4     0.00035629      -426.4210504769 -1.40E-03
     4 OT DIIS     0.80E-01    1.4     0.00010780      -426.4212811244 -2.31E-04
     5 OT DIIS     0.80E-01    1.4     0.00004581      -426.4212976346 -1.65E-05
     6 OT DIIS     0.80E-01    1.4     0.00002203      -426.4213006911 -3.06E-06
     7 OT DIIS     0.80E-01    1.4     0.00000913      -426.4213015210 -8.30E-07

  *** SCF run converged in     7 steps ***


  Electronic density on regular grids:       -191.9999959138        0.0000040862
  Core density on regular grids:              191.9999999875       -0.0000000125
  Total charge density on r-space grids:        0.0000040737
  Total charge density g-space grids:           0.0000040737

  Overlap energy of the core charge distribution:               0.00000003617956
  Self energy of the core charge distribution:              -1106.90238849848902
  Core Hamiltonian energy:                                    324.07099547335821
  Hartree energy:                                             457.99466800989990
  Exchange-correlation energy:                               -101.58457654195009

  Total energy:                                              -426.42130152100157

 ENERGY| Total FORCE_EVAL ( QS ) energy [hartree]           -426.421301663927409

 OPT| **************************************************************************
 OPT| Step number                                                             26
 OPT| Optimization method                                                  LBFGS
 OPT| Total energy [hartree]                                     -426.4213016639
 OPT| Effective energy change [hartree]                            -0.0004222756
 OPT| Decrease in energy                                                     YES
 OPT| Used time [s]                                                       11.976
 OPT|
 OPT| Maximum step size                                             0.0247303957
 OPT| Convergence limit for maximum step size                       0.0030000000
 OPT| Maximum step size is converged                                          NO
 OPT|
 OPT| RMS step size                                                 0.0064669445
 OPT| Convergence limit for RMS step size                           0.0015000000
 OPT| RMS step size is converged                                              NO
 OPT|
 OPT| Maximum gradient                                              0.0035464699
 OPT| Convergence limit for maximum gradient                        0.0010000000
 OPT| Maximum gradient is converged                                           NO
 OPT|
 OPT| RMS gradient                                                  0.0009279681
 OPT| Convergence limit for RMS gradient                            0.0003000000
 OPT| RMS gradient is converged                                               NO
 OPT| **************************************************************************
 OPT| Estimated peak process memory after this step [MiB]                    617

 --------------------------
 OPTIMIZATION STEP:     27
 --------------------------

 Number of electrons:                                                        192
 Number of occupied orbitals:                                                 96
 Number of molecular orbitals:                                                96

 Number of orbital functions:                                                148
 Number of independent orbital functions:                                    148

 Extrapolation method: ASPC


 SCF WAVEFUNCTION OPTIMIZATION

  ----------------------------------- OT ---------------------------------------
  Minimizer      : DIIS                : direct inversion
                                         in the iterative subspace
                                         using   7 DIIS vectors
                                         safer DIIS on
  Preconditioner : FULL_SINGLE_INVERSE : inversion of 
                                         H + eS - 2*(Sc)(c^T*H*c+const)(Sc)^T
  Precond_solver : DEFAULT
  stepsize       :    0.08000000                  energy_gap     :    0.08000000
  eps_taylor     :   0.10000E-15                  max_taylor     :             4
  ----------------------------------- OT ---------------------------------------

  Step     Update method      Time    Convergence         Total energy    Change
  ------------------------------------------------------------------------------
     1 OT DIIS     0.80E-01    0.9     0.00072522      -426.4205585582 -4.26E+02
     2 OT DIIS     0.80E-01    1.4     0.00048092      -426.4210465066 -4.88E-04
     3 OT DIIS     0.80E-01    1.4     0.00019326      -426.4214220787 -3.76E-04
     4 OT DIIS     0.80E-01    1.4     0.00006544      -426.4214873537 -6.53E-05
     5 OT DIIS     0.80E-01    1.4     0.00002703      -426.4214936136 -6.26E-06
     6 OT DIIS     0.80E-01    1.4     0.00001186      -426.4214947087 -1.10E-06
     7 OT DIIS     0.80E-01    1.4     0.00000501      -426.4214949412 -2.32E-07

  *** SCF run converged in     7 steps ***


  Electronic density on regular grids:       -191.9999957771        0.0000042229
  Core density on regular grids:              191.9999999874       -0.0000000126
  Total charge density on r-space grids:        0.0000042103
  Total charge density g-space grids:           0.0000042103

  Overlap energy of the core charge distribution:               0.00000003630633
  Self energy of the core charge distribution:              -1106.90238849848902
  Core Hamiltonian energy:                                    324.06326373330683
  Hartree energy:                                             458.00095361743143
  Exchange-correlation energy:                               -101.58332382972856

  Total energy:                                              -426.42149494117297

 ENERGY| Total FORCE_EVAL ( QS ) energy [hartree]           -426.421494983553714

 OPT| **************************************************************************
 OPT| Step number                                                             27
 OPT| Optimization method                                                  LBFGS
 OPT| Total energy [hartree]                                     -426.4214949836
 OPT| Effective energy change [hartree]                            -0.0001933196
 OPT| Decrease in energy                                                     YES
 OPT| Used time [s]                                                       11.964
 OPT|
 OPT| Maximum step size                                             0.0278540976
 OPT| Convergence limit for maximum step size                       0.0030000000
 OPT| Maximum step size is converged                                          NO
 OPT|
 OPT| RMS step size                                                 0.0073197664
 OPT| Convergence limit for RMS step size                           0.0015000000
 OPT| RMS step size is converged                                              NO
 OPT|
 OPT| Maximum gradient                                              0.0037407315
 OPT| Convergence limit for maximum gradient                        0.0010000000
 OPT| Maximum gradient is converged                                           NO
 OPT|
 OPT| RMS gradient                                                  0.0008146532
 OPT| Convergence limit for RMS gradient                            0.0003000000
 OPT| RMS gradient is converged                                               NO
 OPT| **************************************************************************
 OPT| Estimated peak process memory after this step [MiB]                    617

 --------------------------
 OPTIMIZATION STEP:     28
 --------------------------

 Number of electrons:                                                        192
 Number of occupied orbitals:                                                 96
 Number of molecular orbitals:                                                96

 Number of orbital functions:                                                148
 Number of independent orbital functions:                                    148

 Extrapolation method: ASPC


 SCF WAVEFUNCTION OPTIMIZATION

  ----------------------------------- OT ---------------------------------------
  Minimizer      : DIIS                : direct inversion
                                         in the iterative subspace
                                         using   7 DIIS vectors
                                         safer DIIS on
  Preconditioner : FULL_SINGLE_INVERSE : inversion of 
                                         H + eS - 2*(Sc)(c^T*H*c+const)(Sc)^T
  Precond_solver : DEFAULT
  stepsize       :    0.08000000                  energy_gap     :    0.08000000
  eps_taylor     :   0.10000E-15                  max_taylor     :             4
  ----------------------------------- OT ---------------------------------------

  Step     Update method      Time    Convergence         Total energy    Change
  ------------------------------------------------------------------------------
     1 OT DIIS     0.80E-01    0.9     0.00027318      -426.4215542281 -4.26E+02
     2 OT DIIS     0.80E-01    1.4     0.00016218      -426.4216184768 -6.42E-05
     3 OT DIIS     0.80E-01    1.4     0.00008431      -426.4216514613 -3.30E-05
     4 OT DIIS     0.80E-01    1.4     0.00002933      -426.4216629907 -1.15E-05
     5 OT DIIS     0.80E-01    1.4     0.00001180      -426.4216643593 -1.37E-06
     6 OT DIIS     0.80E-01    1.4     0.00000529      -426.4216645799 -2.21E-07

  *** SCF run converged in     6 steps ***


  Electronic density on regular grids:       -191.9999956317        0.0000043683
  Core density on regular grids:              191.9999999873       -0.0000000127
  Total charge density on r-space grids:        0.0000043556
  Total charge density g-space grids:           0.0000043556

  Overlap energy of the core charge distribution:               0.00000003684420
  Self energy of the core charge distribution:              -1106.90238849848902
  Core Hamiltonian energy:                                    324.06212051047737
  Hartree energy:                                             458.00253006633164
  Exchange-correlation energy:                               -101.58392669504052

  Total energy:                                              -426.42166457987622

 ENERGY| Total FORCE_EVAL ( QS ) energy [hartree]           -426.421664626840538

 OPT| **************************************************************************
 OPT| Step number                                                             28
 OPT| Optimization method                                                  LBFGS
 OPT| Total energy [hartree]                                     -426.4216646268
 OPT| Effective energy change [hartree]                            -0.0001696433
 OPT| Decrease in energy                                                     YES
 OPT| Used time [s]                                                       10.580
 OPT|
 OPT| Maximum step size                                             0.0254749507
 OPT| Convergence limit for maximum step size                       0.0030000000
 OPT| Maximum step size is converged                                          NO
 OPT|
 OPT| RMS step size                                                 0.0064244231
 OPT| Convergence limit for RMS step size                           0.0015000000
 OPT| RMS step size is converged                                              NO
 OPT|
 OPT| Maximum gradient                                              0.0021529144
 OPT| Convergence limit for maximum gradient                        0.0010000000
 OPT| Maximum gradient is converged                                           NO
 OPT|
 OPT| RMS gradient                                                  0.0006802325
 OPT| Convergence limit for RMS gradient                            0.0003000000
 OPT| RMS gradient is converged                                               NO
 OPT| **************************************************************************
 OPT| Estimated peak process memory after this step [MiB]                    617

 --------------------------
 OPTIMIZATION STEP:     29
 --------------------------

 Number of electrons:                                                        192
 Number of occupied orbitals:                                                 96
 Number of molecular orbitals:                                                96

 Number of orbital functions:                                                148
 Number of independent orbital functions:                                    148

 Extrapolation method: ASPC


 SCF WAVEFUNCTION OPTIMIZATION

  ----------------------------------- OT ---------------------------------------
  Minimizer      : DIIS                : direct inversion
                                         in the iterative subspace
                                         using   7 DIIS vectors
                                         safer DIIS on
  Preconditioner : FULL_SINGLE_INVERSE : inversion of 
                                         H + eS - 2*(Sc)(c^T*H*c+const)(Sc)^T
  Precond_solver : DEFAULT
  stepsize       :    0.08000000                  energy_gap     :    0.08000000
  eps_taylor     :   0.10000E-15                  max_taylor     :             4
  ----------------------------------- OT ---------------------------------------

  Step     Update method      Time    Convergence         Total energy    Change
  ------------------------------------------------------------------------------
     1 OT DIIS     0.80E-01    0.9     0.00023703      -426.4217051787 -4.26E+02
     2 OT DIIS     0.80E-01    1.4     0.00013973      -426.4217532990 -4.81E-05
     3 OT DIIS     0.80E-01    1.4     0.00007436      -426.4217775708 -2.43E-05
     4 OT DIIS     0.80E-01    1.4     0.00002663      -426.4217865789 -9.01E-06
     5 OT DIIS     0.80E-01    1.4     0.00001086      -426.4217877338 -1.15E-06
     6 OT DIIS     0.80E-01    1.4     0.00000495      -426.4217879210 -1.87E-07

  *** SCF run converged in     6 steps ***


  Electronic density on regular grids:       -191.9999955380        0.0000044620
  Core density on regular grids:              191.9999999873       -0.0000000127
  Total charge density on r-space grids:        0.0000044492
  Total charge density g-space grids:           0.0000044492

  Overlap energy of the core charge distribution:               0.00000003717888
  Self energy of the core charge distribution:              -1106.90238849848902
  Core Hamiltonian energy:                                    324.06719480265775
  Hartree energy:                                             457.99915250458434
  Exchange-correlation energy:                               -101.58574676690225

  Total energy:                                              -426.42178792097047

 ENERGY| Total FORCE_EVAL ( QS ) energy [hartree]           -426.421787963989857

 OPT| **************************************************************************
 OPT| Step number                                                             29
 OPT| Optimization method                                                  LBFGS
 OPT| Total energy [hartree]                                     -426.4217879640
 OPT| Effective energy change [hartree]                            -0.0001233371
 OPT| Decrease in energy                                                     YES
 OPT| Used time [s]                                                       10.589
 OPT|
 OPT| Maximum step size                                             0.0278039889
 OPT| Convergence limit for maximum step size                       0.0030000000
 OPT| Maximum step size is converged                                          NO
 OPT|
 OPT| RMS step size                                                 0.0077200517
 OPT| Convergence limit for RMS step size                           0.0015000000
 OPT| RMS step size is converged                                              NO
 OPT|
 OPT| Maximum gradient                                              0.0022227229
 OPT| Convergence limit for maximum gradient                        0.0010000000
 OPT| Maximum gradient is converged                                           NO
 OPT|
 OPT| RMS gradient                                                  0.0006799448
 OPT| Convergence limit for RMS gradient                            0.0003000000
 OPT| RMS gradient is converged                                               NO
 OPT| **************************************************************************
 OPT| Estimated peak process memory after this step [MiB]                    617

 --------------------------
 OPTIMIZATION STEP:     30
 --------------------------

 Number of electrons:                                                        192
 Number of occupied orbitals:                                                 96
 Number of molecular orbitals:                                                96

 Number of orbital functions:                                                148
 Number of independent orbital functions:                                    148

 Extrapolation method: ASPC


 SCF WAVEFUNCTION OPTIMIZATION

  ----------------------------------- OT ---------------------------------------
  Minimizer      : DIIS                : direct inversion
                                         in the iterative subspace
                                         using   7 DIIS vectors
                                         safer DIIS on
  Preconditioner : FULL_SINGLE_INVERSE : inversion of 
                                         H + eS - 2*(Sc)(c^T*H*c+const)(Sc)^T
  Precond_solver : DEFAULT
  stepsize       :    0.08000000                  energy_gap     :    0.08000000
  eps_taylor     :   0.10000E-15                  max_taylor     :             4
  ----------------------------------- OT ---------------------------------------

  Step     Update method      Time    Convergence         Total energy    Change
  ------------------------------------------------------------------------------
     1 OT DIIS     0.80E-01    0.9     0.00036727      -426.4216665195 -4.26E+02
     2 OT DIIS     0.80E-01    1.4     0.00022121      -426.4217823977 -1.16E-04
     3 OT DIIS     0.80E-01    1.4     0.00012403      -426.4218429084 -6.05E-05
     4 OT DIIS     0.80E-01    1.4     0.00004100      -426.4218693640 -2.65E-05
     5 OT DIIS     0.80E-01    1.4     0.00001548      -426.4218721568 -2.79E-06
     6 OT DIIS     0.80E-01    1.4     0.00000751      -426.4218725135 -3.57E-07

  *** SCF run converged in     6 steps ***


  Electronic density on regular grids:       -191.9999954693        0.0000045307
  Core density on regular grids:              191.9999999872       -0.0000000128
  Total charge density on r-space grids:        0.0000045179
  Total charge density g-space grids:           0.0000045179

  Overlap energy of the core charge distribution:               0.00000003794526
  Self energy of the core charge distribution:              -1106.90238849848902
  Core Hamiltonian energy:                                    324.07037727778606
  Hartree energy:                                             457.99725584544206
  Exchange-correlation energy:                               -101.58711717622485

  Total energy:                                              -426.42187251354051

 ENERGY| Total FORCE_EVAL ( QS ) energy [hartree]           -426.421872610300966

 OPT| **************************************************************************
 OPT| Step number                                                             30
 OPT| Optimization method                                                  LBFGS
 OPT| Total energy [hartree]                                     -426.4218726103
 OPT| Effective energy change [hartree]                            -0.0000846463
 OPT| Decrease in energy                                                     YES
 OPT| Used time [s]                                                       10.582
 OPT|
 OPT| Maximum step size                                             0.0128435116
 OPT| Convergence limit for maximum step size                       0.0030000000
 OPT| Maximum step size is converged                                          NO
 OPT|
 OPT| RMS step size                                                 0.0039637897
 OPT| Convergence limit for RMS step size                           0.0015000000
 OPT| RMS step size is converged                                              NO
 OPT|
 OPT| Maximum gradient                                              0.0026142033
 OPT| Convergence limit for maximum gradient                        0.0010000000
 OPT| Maximum gradient is converged                                           NO
 OPT|
 OPT| RMS gradient                                                  0.0005978462
 OPT| Convergence limit for RMS gradient                            0.0003000000
 OPT| RMS gradient is converged                                               NO
 OPT| **************************************************************************
 OPT| Estimated peak process memory after this step [MiB]                    620

 --------------------------
 OPTIMIZATION STEP:     31
 --------------------------

 Number of electrons:                                                        192
 Number of occupied orbitals:                                                 96
 Number of molecular orbitals:                                                96

 Number of orbital functions:                                                148
 Number of independent orbital functions:                                    148

 Extrapolation method: ASPC


 SCF WAVEFUNCTION OPTIMIZATION

  ----------------------------------- OT ---------------------------------------
  Minimizer      : DIIS                : direct inversion
                                         in the iterative subspace
                                         using   7 DIIS vectors
                                         safer DIIS on
  Preconditioner : FULL_SINGLE_INVERSE : inversion of 
                                         H + eS - 2*(Sc)(c^T*H*c+const)(Sc)^T
  Precond_solver : DEFAULT
  stepsize       :    0.08000000                  energy_gap     :    0.08000000
  eps_taylor     :   0.10000E-15                  max_taylor     :             4
  ----------------------------------- OT ---------------------------------------

  Step     Update method      Time    Convergence         Total energy    Change
  ------------------------------------------------------------------------------
     1 OT DIIS     0.80E-01    0.9     0.00028996      -426.4218095988 -4.26E+02
     2 OT DIIS     0.80E-01    1.4     0.00016376      -426.4218788789 -6.93E-05
     3 OT DIIS     0.80E-01    1.4     0.00009350      -426.4219092256 -3.03E-05
     4 OT DIIS     0.80E-01    1.4     0.00003195      -426.4219234638 -1.42E-05
     5 OT DIIS     0.80E-01    1.4     0.00001210      -426.4219251489 -1.69E-06
     6 OT DIIS     0.80E-01    1.4     0.00000568      -426.4219253709 -2.22E-07

  *** SCF run converged in     6 steps ***


  Electronic density on regular grids:       -191.9999954551        0.0000045449
  Core density on regular grids:              191.9999999872       -0.0000000128
  Total charge density on r-space grids:        0.0000045321
  Total charge density g-space grids:           0.0000045321

  Overlap energy of the core charge distribution:               0.00000003771902
  Self energy of the core charge distribution:              -1106.90238849848902
  Core Hamiltonian energy:                                    324.07211508656309
  Hartree energy:                                             457.99566178247193
  Exchange-correlation energy:                               -101.58731377914326

  Total energy:                                              -426.42192537087817

 ENERGY| Total FORCE_EVAL ( QS ) energy [hartree]           -426.421925425002257

 OPT| **************************************************************************
 OPT| Step number                                                             31
 OPT| Optimization method                                                  LBFGS
 OPT| Total energy [hartree]                                     -426.4219254250
 OPT| Effective energy change [hartree]                            -0.0000528147
 OPT| Decrease in energy                                                     YES
 OPT| Used time [s]                                                       10.565
 OPT|
 OPT| Maximum step size                                             0.0053002268
 OPT| Convergence limit for maximum step size                       0.0030000000
 OPT| Maximum step size is converged                                          NO
 OPT|
 OPT| RMS step size                                                 0.0017688888
 OPT| Convergence limit for RMS step size                           0.0015000000
 OPT| RMS step size is converged                                              NO
 OPT|
 OPT| Maximum gradient                                              0.0011905292
 OPT| Convergence limit for maximum gradient                        0.0010000000
 OPT| Maximum gradient is converged                                           NO
 OPT|
 OPT| RMS gradient                                                  0.0003591412
 OPT| Convergence limit for RMS gradient                            0.0003000000
 OPT| RMS gradient is converged                                               NO
 OPT| **************************************************************************
 OPT| Estimated peak process memory after this step [MiB]                    620

 --------------------------
 OPTIMIZATION STEP:     32
 --------------------------

 Number of electrons:                                                        192
 Number of occupied orbitals:                                                 96
 Number of molecular orbitals:                                                96

 Number of orbital functions:                                                148
 Number of independent orbital functions:                                    148

 Extrapolation method: ASPC


 SCF WAVEFUNCTION OPTIMIZATION

  ----------------------------------- OT ---------------------------------------
  Minimizer      : DIIS                : direct inversion
                                         in the iterative subspace
                                         using   7 DIIS vectors
                                         safer DIIS on
  Preconditioner : FULL_SINGLE_INVERSE : inversion of 
                                         H + eS - 2*(Sc)(c^T*H*c+const)(Sc)^T
  Precond_solver : DEFAULT
  stepsize       :    0.08000000                  energy_gap     :    0.08000000
  eps_taylor     :   0.10000E-15                  max_taylor     :             4
  ----------------------------------- OT ---------------------------------------

  Step     Update method      Time    Convergence         Total energy    Change
  ------------------------------------------------------------------------------
     1 OT DIIS     0.80E-01    0.9     0.00017815      -426.4219082188 -4.26E+02
     2 OT DIIS     0.80E-01    1.4     0.00011140      -426.4219364208 -2.82E-05
     3 OT DIIS     0.80E-01    1.4     0.00005589      -426.4219533841 -1.70E-05
     4 OT DIIS     0.80E-01    1.4     0.00001849      -426.4219586981 -5.31E-06
     5 OT DIIS     0.80E-01    1.4     0.00000706      -426.4219592413 -5.43E-07

  *** SCF run converged in     5 steps ***


  Electronic density on regular grids:       -191.9999954263        0.0000045737
  Core density on regular grids:              191.9999999872       -0.0000000128
  Total charge density on r-space grids:        0.0000045609
  Total charge density g-space grids:           0.0000045609

  Overlap energy of the core charge distribution:               0.00000003727050
  Self energy of the core charge distribution:              -1106.90238849848902
  Core Hamiltonian energy:                                    324.07401706355529
  Hartree energy:                                             457.99384906891146
  Exchange-correlation energy:                               -101.58743691256630

  Total energy:                                              -426.42195924131818

 ENERGY| Total FORCE_EVAL ( QS ) energy [hartree]           -426.421959318201459

 OPT| **************************************************************************
 OPT| Step number                                                             32
 OPT| Optimization method                                                  LBFGS
 OPT| Total energy [hartree]                                     -426.4219593182
 OPT| Effective energy change [hartree]                            -0.0000338932
 OPT| Decrease in energy                                                     YES
 OPT| Used time [s]                                                        9.222
 OPT|
 OPT| Maximum step size                                             0.0100838959
 OPT| Convergence limit for maximum step size                       0.0030000000
 OPT| Maximum step size is converged                                          NO
 OPT|
 OPT| RMS step size                                                 0.0029713321
 OPT| Convergence limit for RMS step size                           0.0015000000
 OPT| RMS step size is converged                                              NO
 OPT|
 OPT| Maximum gradient                                              0.0011496602
 OPT| Convergence limit for maximum gradient                        0.0010000000
 OPT| Maximum gradient is converged                                           NO
 OPT|
 OPT| RMS gradient                                                  0.0003333695
 OPT| Convergence limit for RMS gradient                            0.0003000000
 OPT| RMS gradient is converged                                               NO
 OPT| **************************************************************************
 OPT| Estimated peak process memory after this step [MiB]                    620

 --------------------------
 OPTIMIZATION STEP:     33
 --------------------------

 Number of electrons:                                                        192
 Number of occupied orbitals:                                                 96
 Number of molecular orbitals:                                                96

 Number of orbital functions:                                                148
 Number of independent orbital functions:                                    148

 Extrapolation method: ASPC


 SCF WAVEFUNCTION OPTIMIZATION

  ----------------------------------- OT ---------------------------------------
  Minimizer      : DIIS                : direct inversion
                                         in the iterative subspace
                                         using   7 DIIS vectors
                                         safer DIIS on
  Preconditioner : FULL_SINGLE_INVERSE : inversion of 
                                         H + eS - 2*(Sc)(c^T*H*c+const)(Sc)^T
  Precond_solver : DEFAULT
  stepsize       :    0.08000000                  energy_gap     :    0.08000000
  eps_taylor     :   0.10000E-15                  max_taylor     :             4
  ----------------------------------- OT ---------------------------------------

  Step     Update method      Time    Convergence         Total energy    Change
  ------------------------------------------------------------------------------
     1 OT DIIS     0.80E-01    0.9     0.00018230      -426.4219151810 -4.26E+02
     2 OT DIIS     0.80E-01    1.4     0.00012097      -426.4219459896 -3.08E-05
     3 OT DIIS     0.80E-01    1.4     0.00004936      -426.4219694925 -2.35E-05
     4 OT DIIS     0.80E-01    1.4     0.00001666      -426.4219737358 -4.24E-06
     5 OT DIIS     0.80E-01    1.4     0.00000683      -426.4219741490 -4.13E-07

  *** SCF run converged in     5 steps ***


  Electronic density on regular grids:       -191.9999954138        0.0000045862
  Core density on regular grids:              191.9999999872       -0.0000000128
  Total charge density on r-space grids:        0.0000045734
  Total charge density g-space grids:           0.0000045734

  Overlap energy of the core charge distribution:               0.00000003794122
  Self energy of the core charge distribution:              -1106.90238849848902
  Core Hamiltonian energy:                                    324.07777219019039
  Hartree energy:                                             457.99141650041105
  Exchange-correlation energy:                               -101.58877437901720

  Total energy:                                              -426.42197414896356

 ENERGY| Total FORCE_EVAL ( QS ) energy [hartree]           -426.421974218797970

 OPT| **************************************************************************
 OPT| Step number                                                             33
 OPT| Optimization method                                                  LBFGS
 OPT| Total energy [hartree]                                     -426.4219742188
 OPT| Effective energy change [hartree]                            -0.0000149006
 OPT| Decrease in energy                                                     YES
 OPT| Used time [s]                                                        9.225
 OPT|
 OPT| Maximum step size                                             0.0069019964
 OPT| Convergence limit for maximum step size                       0.0030000000
 OPT| Maximum step size is converged                                          NO
 OPT|
 OPT| RMS step size                                                 0.0017441950
 OPT| Convergence limit for RMS step size                           0.0015000000
 OPT| RMS step size is converged                                              NO
 OPT|
 OPT| Maximum gradient                                              0.0013136582
 OPT| Convergence limit for maximum gradient                        0.0010000000
 OPT| Maximum gradient is converged                                           NO
 OPT|
 OPT| RMS gradient                                                  0.0003749610
 OPT| Convergence limit for RMS gradient                            0.0003000000
 OPT| RMS gradient is converged                                               NO
 OPT| **************************************************************************
 OPT| Estimated peak process memory after this step [MiB]                    620

 --------------------------
 OPTIMIZATION STEP:     34
 --------------------------

 Number of electrons:                                                        192
 Number of occupied orbitals:                                                 96
 Number of molecular orbitals:                                                96

 Number of orbital functions:                                                148
 Number of independent orbital functions:                                    148

 Extrapolation method: ASPC


 SCF WAVEFUNCTION OPTIMIZATION

  ----------------------------------- OT ---------------------------------------
  Minimizer      : DIIS                : direct inversion
                                         in the iterative subspace
                                         using   7 DIIS vectors
                                         safer DIIS on
  Preconditioner : FULL_SINGLE_INVERSE : inversion of 
                                         H + eS - 2*(Sc)(c^T*H*c+const)(Sc)^T
  Precond_solver : DEFAULT
  stepsize       :    0.08000000                  energy_gap     :    0.08000000
  eps_taylor     :   0.10000E-15                  max_taylor     :             4
  ----------------------------------- OT ---------------------------------------

  Step     Update method      Time    Convergence         Total energy    Change
  ------------------------------------------------------------------------------
     1 OT DIIS     0.80E-01    0.9     0.00013249      -426.4219619025 -4.26E+02
     2 OT DIIS     0.80E-01    1.4     0.00007825      -426.4219769650 -1.51E-05
     3 OT DIIS     0.80E-01    1.4     0.00004103      -426.4219845999 -7.63E-06
     4 OT DIIS     0.80E-01    1.4     0.00001417      -426.4219873375 -2.74E-06
     5 OT DIIS     0.80E-01    1.4     0.00000551      -426.4219876576 -3.20E-07

  *** SCF run converged in     5 steps ***


  Electronic density on regular grids:       -191.9999954055        0.0000045945
  Core density on regular grids:              191.9999999872       -0.0000000128
  Total charge density on r-space grids:        0.0000045816
  Total charge density g-space grids:           0.0000045816

  Overlap energy of the core charge distribution:               0.00000003762967
  Self energy of the core charge distribution:              -1106.90238849848902
  Core Hamiltonian energy:                                    324.07864731825117
  Hartree energy:                                             457.99060785191267
  Exchange-correlation energy:                               -101.58885436686300

  Total energy:                                              -426.42198765755859

 ENERGY| Total FORCE_EVAL ( QS ) energy [hartree]           -426.421987704326511

 OPT| **************************************************************************
 OPT| Step number                                                             34
 OPT| Optimization method                                                  LBFGS
 OPT| Total energy [hartree]                                     -426.4219877043
 OPT| Effective energy change [hartree]                            -0.0000134855
 OPT| Decrease in energy                                                     YES
 OPT| Used time [s]                                                        9.237
 OPT|
 OPT| Maximum step size                                             0.0028475885
 OPT| Convergence limit for maximum step size                       0.0030000000
 OPT| Maximum step size is converged                                         YES
 OPT|
 OPT| RMS step size                                                 0.0007261699
 OPT| Convergence limit for RMS step size                           0.0015000000
 OPT| RMS step size is converged                                             YES
 OPT|
 OPT| Maximum gradient                                              0.0008792426
 OPT| Convergence limit for maximum gradient                        0.0010000000
 OPT| Maximum gradient is converged                                          YES
 OPT|
 OPT| RMS gradient                                                  0.0002360857
 OPT| Convergence limit for RMS gradient                            0.0003000000
 OPT| RMS gradient is converged                                              YES
 OPT| **************************************************************************
 OPT| Estimated peak process memory after this step [MiB]                    620

 *******************************************************************************
 ***                    GEOMETRY OPTIMIZATION COMPLETED                      ***
 *******************************************************************************

                    Reevaluating energy at the minimum

 Number of electrons:                                                        192
 Number of occupied orbitals:                                                 96
 Number of molecular orbitals:                                                96

 Number of orbital functions:                                                148
 Number of independent orbital functions:                                    148

 Extrapolation method: ASPC


 SCF WAVEFUNCTION OPTIMIZATION

  ----------------------------------- OT ---------------------------------------
  Minimizer      : DIIS                : direct inversion
                                         in the iterative subspace
                                         using   7 DIIS vectors
                                         safer DIIS on
  Preconditioner : FULL_SINGLE_INVERSE : inversion of 
                                         H + eS - 2*(Sc)(c^T*H*c+const)(Sc)^T
  Precond_solver : DEFAULT
  stepsize       :    0.08000000                  energy_gap     :    0.08000000
  eps_taylor     :   0.10000E-15                  max_taylor     :             4
  ----------------------------------- OT ---------------------------------------

  Step     Update method      Time    Convergence         Total energy    Change
  ------------------------------------------------------------------------------
     1 OT DIIS     0.80E-01    0.9     0.00008825      -426.4219768127 -4.26E+02
     2 OT DIIS     0.80E-01    1.3     0.00005069      -426.4219834621 -6.65E-06
     3 OT DIIS     0.80E-01    1.3     0.00002458      -426.4219866581 -3.20E-06
     4 OT DIIS     0.80E-01    1.3     0.00000869      -426.4219875786 -9.20E-07

  *** SCF run converged in     4 steps ***


  Electronic density on regular grids:       -191.9999954056        0.0000045944
  Core density on regular grids:              191.9999999872       -0.0000000128
  Total charge density on r-space grids:        0.0000045816
  Total charge density g-space grids:           0.0000045816

  Overlap energy of the core charge distribution:               0.00000003762967
  Self energy of the core charge distribution:              -1106.90238849848902
  Core Hamiltonian energy:                                    324.07847437184358
  Hartree energy:                                             457.99072343749367
  Exchange-correlation energy:                               -101.58879692710499

  Total energy:                                              -426.42198757862707

 ENERGY| Total FORCE_EVAL ( QS ) energy [hartree]           -426.421987578627068

 -------------------------------------------------------------------------------
 -                                                                             -
 -                                DBCSR STATISTICS                             -
 -                                                                             -
 -------------------------------------------------------------------------------
 COUNTER                                    TOTAL       BLAS       SMM       ACC
 flops     1 x     1 x    96               817920       0.0%    100.0%      0.0%     
 flops     1 x    32 x     1              2924544       0.0%    100.0%      0.0%     
 flops     1 x    32 x    32              3637248       0.0%    100.0%      0.0%     
 flops     1 x     4 x    96             23556096       0.0%    100.0%      0.0%     
 flops     4 x     1 x    96             23556096       0.0%    100.0%      0.0%     
 flops    32 x    32 x   148             67289088       0.0%    100.0%      0.0%     
 flops     1 x    32 x     4            105283584       0.0%    100.0%      0.0%     
 flops     4 x    32 x     1            105283584       0.0%    100.0%      0.0%     
 flops     4 x    32 x    32            130940928       0.0%    100.0%      0.0%     
 flops     4 x     4 x    96            871575552       0.0%    100.0%      0.0%     
 flops   148 x    96 x   148           1484565504       0.0%    100.0%      0.0%     
 flops    96 x    96 x   148           3347177472       0.0%    100.0%      0.0%     
 flops     4 x    32 x     4           3790209024       0.0%    100.0%      0.0%     
 flops   148 x    96 x    96           4108271616       0.0%    100.0%      0.0%     
 flops    96 x    96 x    96           4248502272       0.0%    100.0%      0.0%     
 flops inhomo. stacks                           0       0.0%      0.0%      0.0%
 flops total                        18.313591E+09       0.0%    100.0%      0.0%
 flops max/rank                     18.313591E+09       0.0%    100.0%      0.0%
 matmuls inhomo. stacks                         0       0.0%      0.0%      0.0%
 matmuls total                            4942389       0.0%    100.0%      0.0%
 number of processed stacks                 14040       0.0%    100.0%      0.0%
 average stack size                                     0.0     352.0       0.0
 marketing flops                    19.387765E+09
 -------------------------------------------------------------------------------
 # multiplications                           7013
 max memory usage/rank             649.719808E+06
 # max total images/rank                        1
 # max 3D layers                                1
 # MPI messages exchanged                       0
 -------------------------------------------------------------------------------
 -                                                                             -
 -                      DBCSR MESSAGE PASSING PERFORMANCE                      -
 -                                                                             -
 -------------------------------------------------------------------------------
 ROUTINE             CALLS      AVE VOLUME [Bytes]
 MP_Bcast               16                     12.
 MP_Allreduce        36546                      8.
 MP_Alltoall         27713                  30926.
 MP_ISend            27904                   4153.
 MP_IRecv            27904                   4153.
 -------------------------------------------------------------------------------

 -------------------------------------------------------------------------------
 -                                                                             -
 -                                DBM STATISTICS                               -
 -                                                                             -
 -------------------------------------------------------------------------------
    M  x    N  x    K                                          COUNT     PERCENT
 -------------------------------------------------------------------------------

 -------------------------------------------------------------------------------
 -                                                                             -
 -                                GRID STATISTICS                              -
 -                                                                             -
 -------------------------------------------------------------------------------
 LP    KERNEL             BACKEND                              COUNT     PERCENT
 2     collocate ortho    CPU                                8887363      40.04%
 2     integrate ortho    CPU                                8165141      36.78%
 1     collocate ortho    CPU                                2059412       9.28%
 1     integrate ortho    CPU                                1860590       8.38%
 3     integrate ortho    CPU                                 906965       4.09%
 0     collocate ortho    CPU                                 166562       0.75%
 0     integrate ortho    CPU                                 149117       0.67%
 0     collocate general  CPU                                   1480       0.01%
 1     integrate general  CPU                                   1440       0.01%
 -------------------------------------------------------------------------------

 MEMORY| Estimated peak process memory [MiB]                                 620

 -------------------------------------------------------------------------------
 -                                                                             -
 -                         MESSAGE PASSING PERFORMANCE                         -
 -                                                                             -
 -------------------------------------------------------------------------------

 ROUTINE             CALLS      AVE VOLUME [Bytes]
 MP_Group                4
 MP_Bcast            11415                    729.
 MP_Allreduce        32631                    449.
 MP_Sync                88
 -------------------------------------------------------------------------------


 -------------------------------------------------------------------------------
 -                                                                             -
 -                           R E F E R E N C E S                               -
 -                                                                             -
 -------------------------------------------------------------------------------
 
 CP2K version 2025.1, the CP2K developers group (2025).
 CP2K is freely available from https://www.cp2k.org/ .
 
 T. D. Kuehne, M. Iannuzzi, M. Del Ben, V. V. Rybkin, P. Seewald, F. Stein, T. 
 Laino, R. Z. Khaliullin, O. Schuett, F. Schiffmann, D. Golze, J. Wilhelm, S. 
 Chulkov, M. H. Bani-Hashemian, V. Weber, U. Borstnik, M. Taillefumier, A. S. 
 Jakobovits, A. Lazzaro, H. Pabst, T. Mueller, R. Schade, M. Guidon, S. 
 Andermatt, N. Holmberg, G. K. Schenter, A. Hehn, A. Bussy, F. Belleflamme, G. 
 Tabacchi, A. Gloess, M. Lass, I. Bethune, C. J. Mundy, C. Plessl, M. Watkins, 
 J. VandeVondele, M. Krack, J. Hutter.
 J. Chem. Phys. 152, 194103 (2020).
 CP2K: An electronic structure and molecular dynamics software package - 
 Quickstep: Efficient and accurate electronic structure calculations.
 https://doi.org/10.1063/5.0007045

 O. Schuett, P. Messmer, J. Hutter, J. VandeVondele.
 Electronic Structure Calculations on Graphics Processing Units, 173-190 (2016).
 GPU-Accelerated Sparse Matrix-Matrix Multiplication for Linear Scaling Density 
 Functional Theory.
 https://doi.org/10.1002/9781118670712.ch8

 A. Heinecke, G. Henry, M. Hutchinson, H. Pabst.
 Proceedings of Intl. Supercomputing Conference, 981-991 (2016).
 LIBXSMM: Accelerating Small Matrix Multiplications by Runtime Code Generation.
 https://doi.org/10.1109/SC.2016.83

 J. Hutter, M. Iannuzzi, F. Schiffmann, J. VandeVondele.
 WIREs Comput Mol Sci. 4, 15-25 (2014).
 CP2K: atomistic simulations of condensed matter systems.
 https://doi.org/10.1002/wcms.1159

 U. Borstnik, J. VandeVondele, V. Weber, J. Hutter.
 Parallel Comput. 40, 47-58 (2014).
 Sparse matrix multiplication: The distributed block-compressed sparse row 
 library.
 https://doi.org/10.1016/j.parco.2014.03.012

 A. Marek, V. Blum, R. Johanni, V. Havu, B. Lang, T. Auckenthaler, A. Heinecke, 
 H. Bungartz, H. Lederer.
 J. Phys. Condens. Matter 26, 213201 (2014).
 The ELPA library: scalable parallel eigenvalue solutions for electronic 
 structure theory and computational science.
 https://doi.org/10.1088/0953-8984/26/21/213201

 J. VandeVondele, J. Hutter.
 J. Chem. Phys. 127, 114105 (2007).
 Gaussian basis sets for accurate calculations on molecular systems in gas and 
 condensed phases.
 https://doi.org/10.1063/1.2770708

 T. D. Kühne, M. Krack, F. R. Mohamed, M. Parrinello.
 Phys. Rev. Lett. 98, 066401 (2007).
 Efficient and accurate Car-Parrinello-like approach to Born-Oppenheimer 
 molecular dynamics.
 https://doi.org/10.1103/PhysRevLett.98.066401

 J. VandeVondele, M. Krack, F. Mohamed, M. Parrinello, T. Chassaing, J. Hutter.
 Comput. Phys. Commun. 167, 103-128 (2005).
 QUICKSTEP: Fast and accurate density functional calculations using a mixed 
 Gaussian and plane waves approach.
 https://doi.org/10.1016/j.cpc.2004.12.014

 M. Krack.
 Theor. Chem. Acc. 114, 145-152 (2005).
 Pseudopotentials for H to Kr optimized for gradient-corrected 
 exchange-correlation functionals.
 https://doi.org/10.1007/s00214-005-0655-y

 M. Frigo, S. G. Johnson.
 Proc. IEEE 93, 216-231 (2005).
 The design and implementation of FFTW3.
 https://doi.org/10.1109/JPROC.2004.840301

 J. Kolafa.
 J. Comput. Chem. 25, 335-342 (2004).
 Time-reversible always stable predictor-corrector method for molecular dynamics 
 of polarizable molecules.
 https://doi.org/10.1002/jcc.10385

 J. VandeVondele, J. Hutter.
 J. Chem. Phys. 118, 4365-4369 (2003).
 An efficient orbital transformation method for electronic structure 
 calculations.
 https://doi.org/10.1063/1.1543154

 C. Hartwigsen, S. Goedecker, J. Hutter.
 Phys. Rev. B 58, 3641-3662 (1998).
 Relativistic separable dual-space Gaussian pseudopotentials from H to Rn.
 https://doi.org/10.1103/PhysRevB.58.3641

 G. Lippert, J. Hutter, M. Parrinello.
 Mol. Phys. 92, 477-487 (1997).
 A hybrid Gaussian and plane wave density functional scheme.
 https://doi.org/10.1080/002689797170220

 S. Goedecker, M. Teter, J. Hutter.
 Phys. Rev. B 54, 1703-1710 (1996).
 Separable dual-space Gaussian pseudopotentials.
 https://doi.org/10.1103/PhysRevB.54.1703

 J. P. Perdew, K. Burke, M. Ernzerhof.
 Phys. Rev. Lett. 77, 3865-3868 (1996).
 Generalized gradient approximation made simple.
 https://doi.org/10.1103/PhysRevLett.77.3865

 R. H. Byrd, P. H. Lu, J. Nocedal, C. Y. Zhu.
 SIAM J. Sci. Comput. 16, 1190-1208 (1995).
 A Limited Memory Algorithm for Bound Constrained Optimization.
 https://doi.org/10.1137/0916069


 -------------------------------------------------------------------------------
 -                                                                             -
 -                                T I M I N G                                  -
 -                                                                             -
 -------------------------------------------------------------------------------
 SUBROUTINE                       CALLS  ASD         SELF TIME        TOTAL TIME
                                MAXIMUM       AVERAGE  MAXIMUM  AVERAGE  MAXIMUM
 CP2K                                 1  1.0    0.383    0.383  523.833  523.833
 cp_geo_opt                           1  2.0    0.007    0.007  522.629  522.629
 geoopt_lbfgs                         1  3.0    0.008    0.008  522.622  522.622
 cp_eval_at                          37  5.0    0.029    0.029  522.402  522.402
 cp_opt_gopt_step                    34  4.0    0.006    0.006  516.383  516.383
 qs_forces                           36  6.0    0.013    0.013  516.166  516.166
 qs_energies                         37  6.9    0.118    0.118  465.035  465.035
 scf_env_do_scf                      37  7.9    0.003    0.003  433.658  433.658
 scf_env_do_scf_inner_loop          316  9.0    0.059    0.059  399.576  399.576
 rebuild_ks_matrix                  352 10.7    0.001    0.001  322.099  322.099
 qs_ks_build_kohn_sham_matrix       352 11.7    0.035    0.035  322.098  322.098
 qs_ks_update_qs_env                353 10.0    0.002    0.002  281.778  281.778
 sum_up_and_integrate               352 12.7    0.004    0.004  178.708  178.708
 integrate_v_rspace                 352 13.7    0.107    0.107  172.394  172.394
 qs_rho_update_rho_low              353 10.1    0.002    0.002  159.879  159.879
 calculate_rho_elec                 353 11.1    1.181    1.181  159.877  159.877
 grid_integrate_task_list           352 14.7  159.767  159.767  159.767  159.767
 grid_collocate_task_list           353 12.1  135.977  135.977  135.977  135.977
 qs_vxc_create                      352 12.7    0.015    0.015  121.900  121.900
 xc_vxc_pw_create                   352 13.7    9.890    9.890  121.885  121.885
 fft_wrap_pw1pw2                   6026 15.1    0.044    0.044  111.285  111.285
 fft_wrap_pw1pw2_150               3911 16.4    1.264    1.264  107.698  107.698
 fft3d_s                           6027 17.1   75.249   75.249   75.321   75.321
 xc_pw_derive                      2112 15.7    0.010    0.010   64.715   64.715
 xc_rho_set_and_dset_create         352 14.7    6.963    6.963   59.178   59.178
 xc_pw_divergence                   352 14.7    0.005    0.005   48.340   48.340
 qs_ks_update_qs_env_forces          36  7.0    0.000    0.000   40.362   40.362
 init_scf_loop                       37  8.9    0.039    0.039   34.053   34.053
 density_rs2pw                      353 12.1    0.019    0.019   22.719   22.719
 xc_functional_eval                 352 15.7    0.003    0.003   18.995   18.995
 pbe_lda_eval                       352 16.7   18.993   18.993   18.993   18.993
 init_scf_run                        37  7.9    0.020    0.020   18.769   18.769
 scf_env_initial_rho_setup           37  8.9    0.014    0.014   18.749   18.749
 build_core_hamiltonian_matrix_      36  7.0    0.001    0.001   16.959   16.959
 wfi_extrapolate                     37  9.9    0.002    0.002   16.943   16.943
 pw_axpy                           3524 14.1   13.625   13.625   13.625   13.625
 potential_pw2rs                    352 14.7    0.040    0.040   12.521   12.521
 qs_energies_init_hamiltonians       37  7.9    0.026    0.026   12.250   12.250
 -------------------------------------------------------------------------------

 The number of warnings for this run is : 0
 
 -------------------------------------------------------------------------------
  **** **** ******  **  PROGRAM ENDED AT                 2026-10-07 17:02:23.900
 ***** ** ***  *** **   PROGRAM RAN ON                                    r6i5n2
 **    ****   ******    PROGRAM RAN BY                                   a266017
 ***** **    ** ** **   PROGRAM PROCESS ID                                974215
  **** **  *******  **  PROGRAM STOPPED IN  /home/g7/a266017/VASP/cp2k/runs/bulk
