 DBCSR| CPU Multiplication driver                                           XSMM (U)
 DBCSR| Multrec recursion limit                                              512 (U)
 DBCSR| Multiplication stack size                                           1000 (D)
 DBCSR| Maximum elements for images                                    UNLIMITED (U)
 DBCSR| Multiplicative factor virtual images                                   1 (U)
 DBCSR| Use multiplication densification                                       T (D)
 DBCSR| Multiplication size stacks                                             3 (U)
 DBCSR| Use memory pool for CPU allocation                                     F (U)
 DBCSR| Number of 3D layers                                               SINGLE (U)
 DBCSR| Use MPI memory allocation                                              F (U)
 DBCSR| Use RMA algorithm                                                      F (U)
 DBCSR| Use Communication thread                                               T (U)
 DBCSR| Communication thread load                                             87 (D)
 DBCSR| MPI: My process id                                                     0
 DBCSR| MPI: Number of processes                                               1
 DBCSR| OMP: Current number of threads                                         1
 DBCSR| OMP: Max number of threads                                             1
 DBCSR| Split modifier for TAS multiplication algorithm                  1.0E+00 (U)


  **** **** ******  **  PROGRAM STARTED AT               2026-10-08 02:43:14.039
 ***** ** ***  *** **   PROGRAM STARTED ON                                r6i5n2
 **    ****   ******    PROGRAM STARTED BY                               a266017
 ***** **    ** ** **   PROGRAM PROCESS ID                                976335
  **** **  *******  **  PROGRAM STARTED IN /home/g7/a266017/VASP/cp2k/runs/rib_y
                                           _o00_al

 CP2K| version string:                                       CP2K version 2025.1
 CP2K| source code revision number:                                  git:9635df4
 CP2K| cp2kflags: omp libint fftw3 libxc libgrpp elpa parallel scalapack mpi_f08
 CP2K|             cosma xsmm plumed2 spglib mkl sirius libvori libbqb libvdwxc
 CP2K|             hdf5
 CP2K| is freely available from                            https://www.cp2k.org/
 CP2K| Program compiled at                          Fri Mar 13 14:45:02 JST 2026
 CP2K| Program compiled on                            s86fs1.tokai-sc.jaea.go.jp
 CP2K| Program compiled for                                                local
 CP2K| Data directory path                /home/center/app/CP2K/cp2k-2025.1/data
 CP2K| Input file name                                                    sp.inp
 
 GLOBAL| Force Environment number                                              1
 GLOBAL| Basis set file name                                        BASIS_MOLOPT
 GLOBAL| Potential file name                                      GTH_POTENTIALS
 GLOBAL| MM Potential file name                                     MM_POTENTIAL
 GLOBAL| Coordinate file name                                        relaxed.xyz
 GLOBAL| Method name                                                        CP2K
 GLOBAL| Project name                                                         sp
 GLOBAL| Run type                                                         ENERGY
 GLOBAL| FFT library                                                       FFTW3
 GLOBAL| Diagonalization library                                            ELPA
 GLOBAL| DGEMM library                                                      BLAS
 GLOBAL| Minimum number of eigenvectors for ELPA usage                        16
 GLOBAL| Orthonormality check for eigenvectors                          DISABLED
 GLOBAL| Matrix multiplication library                                     COSMA
 GLOBAL| All-to-all communication in single precision                          F
 GLOBAL| FFTs using library dependent lengths                                  F
 GLOBAL| Grid backend                                                       AUTO
 GLOBAL| Global print level                                                  LOW
 GLOBAL| MPI I/O enabled                                                       T
 GLOBAL| Total number of message passing processes                             1
 GLOBAL| Number of threads for this process                                    1
 GLOBAL| This output is from process                                           0
 GLOBAL| OpenMP stack size per thread (OMP_STACKSIZE)                    default
 GLOBAL| CPU model name                Intel(R) Xeon(R) Gold 6242R CPU @ 3.10GHz
 GLOBAL| CPUID                                                              1003

 MEMORY| system memory details [Kb]
 MEMORY|                        rank 0           min           max       average
 MEMORY| MemTotal            196248260     196248260     196248260     196248260
 MEMORY| MemFree             182753068     182753068     182753068     182753068
 MEMORY| Buffers                     0             0             0             0
 MEMORY| Cached                8989820       8989820       8989820       8989820
 MEMORY| Slab                  1243248       1243248       1243248       1243248
 MEMORY| SReclaimable           183240        183240        183240        183240
 MEMORY| MemLikelyFree       191926128     191926128     191926128     191926128

 
 GENERATE|  Preliminary Number of Bonds generated:                             0
 GENERATE|  Achieved consistency in connectivity generation.

 *******************************************************************************
 *******************************************************************************
 **                                                                           **
 **     #####                         ##              ##                      **
 **    ##   ##            ##          ##              ##                      **
 **   ##     ##                       ##            ######                    **
 **   ##     ##  ##   ##  ##   #####  ##  ##   ####   ##    #####    #####    **
 **   ##     ##  ##   ##  ##  ##      ## ##   ##      ##   ##   ##  ##   ##   **
 **   ##  ## ##  ##   ##  ##  ##      ####     ###    ##   ######   ######    **
 **    ##  ###   ##   ##  ##  ##      ## ##      ##   ##   ##       ##        **
 **     #######   #####   ##   #####  ##  ##  ####    ##    #####   ##        **
 **           ##                                                    ##        **
 **                                                                           **
 **                                                ... make the atoms dance   **
 **                                                                           **
 **            Copyright (C) by CP2K developers group (2000-2025)             **
 **                      J. Chem. Phys. 152, 194103 (2020)                    **
 **                                                                           **
 *******************************************************************************


 TOTAL NUMBERS AND MAXIMUM NUMBERS

  Total number of            - Atomic kinds:                                   4
                             - Atoms:                                         92
                             - Shell sets:                                    92
                             - Shells:                                       424
                             - Primitive Cartesian functions:                437
                             - Cartesian basis functions:                   1126
                             - Spherical basis functions:                   1052

  Maximum angular momentum of- Orbital basis functions:                        2
                             - Local part of the GTH pseudopotential:          2
                             - Non-local part of the GTH pseudopotential:      2


 SCF PARAMETERS         Density guess:                                    ATOMIC
                        --------------------------------------------------------
                        max_scf:                                             200
                        max_scf_history:                                       0
                        max_diis:                                              4
                        --------------------------------------------------------
                        eps_scf:                                        5.00E-06
                        eps_scf_history:                                0.00E+00
                        eps_diis:                                       1.00E-01
                        eps_eigval:                                     1.00E-05
                        --------------------------------------------------------
                        level_shift [a.u.]:                             0.000000
                        --------------------------------------------------------
                        No outer SCF

 Number of electrons:                                                        408
 Number of occupied orbitals:                                                204
 Number of molecular orbitals:                                               204

 Number of orbital functions:                                               1052
 Number of independent orbital functions:                                   1052

 Extrapolation method: initial_guess


 SCF WAVEFUNCTION OPTIMIZATION

  ----------------------------------- OT ---------------------------------------
  Minimizer      : DIIS                : direct inversion
                                         in the iterative subspace
                                         using   7 DIIS vectors
                                         safer DIIS on
  Preconditioner : FULL_SINGLE_INVERSE : inversion of 
                                         H + eS - 2*(Sc)(c^T*H*c+const)(Sc)^T
  Precond_solver : DEFAULT
  stepsize       :    0.08000000                  energy_gap     :    0.08000000
  eps_taylor     :   0.10000E-15                  max_taylor     :             4
  ----------------------------------- OT ---------------------------------------

  Step     Update method      Time    Convergence         Total energy    Change
  ------------------------------------------------------------------------------
     1 OT DIIS     0.80E-01    9.4     0.03502409      -880.1937797388 -8.80E+02
     2 OT DIIS     0.80E-01   12.0     0.08298561      -881.4017385765 -1.21E+00
     3 OT DIIS     0.80E-01   12.0     0.03246826      -892.0681930660 -1.07E+01
     4 OT DIIS     0.80E-01   11.9     0.03655397      -894.0961639280 -2.03E+00
     5 OT DIIS     0.80E-01   11.9     0.01443675      -898.9833772810 -4.89E+00
     6 OT DIIS     0.80E-01   12.0     0.00974810      -902.7633178187 -3.78E+00
     7 OT DIIS     0.80E-01   12.0     0.00678979      -904.5273868235 -1.76E+00
     8 OT DIIS     0.80E-01   12.0     0.00465454      -905.6393248069 -1.11E+00
     9 OT DIIS     0.80E-01   11.9     0.00341291      -906.2163195036 -5.77E-01
    10 OT DIIS     0.80E-01   12.0     0.00281208      -906.5316856306 -3.15E-01
    11 OT DIIS     0.80E-01   12.0     0.00231148      -906.7505791606 -2.19E-01
    12 OT DIIS     0.80E-01   12.0     0.00155968      -906.9440039813 -1.93E-01
    13 OT DIIS     0.80E-01   12.0     0.00119946      -907.0073818222 -6.34E-02
    14 OT DIIS     0.80E-01   12.0     0.00086983      -907.0595362289 -5.22E-02
    15 OT DIIS     0.80E-01   12.0     0.00066044      -907.0925876560 -3.31E-02
    16 OT DIIS     0.80E-01   11.9     0.00050359      -907.1073442819 -1.48E-02
    17 OT DIIS     0.80E-01   11.9     0.00037973      -907.1196740891 -1.23E-02
    18 OT DIIS     0.80E-01   11.9     0.00029688      -907.1273015454 -7.63E-03
    19 OT DIIS     0.80E-01   12.0     0.00023352      -907.1324629315 -5.16E-03
    20 OT DIIS     0.80E-01   12.0     0.00018912      -907.1357640086 -3.30E-03
    21 OT DIIS     0.80E-01   12.0     0.00015643      -907.1381037048 -2.34E-03
    22 OT DIIS     0.80E-01   12.0     0.00013401      -907.1396585045 -1.55E-03
    23 OT DIIS     0.80E-01   11.9     0.00011403      -907.1410139270 -1.36E-03
    24 OT DIIS     0.80E-01   11.9     0.00010052      -907.1419005401 -8.87E-04
    25 OT DIIS     0.80E-01   11.9     0.00008959      -907.1426447419 -7.44E-04
    26 OT DIIS     0.80E-01   11.9     0.00008066      -907.1432936274 -6.49E-04
    27 OT DIIS     0.80E-01   12.0     0.00007463      -907.1437730495 -4.79E-04
    28 OT DIIS     0.80E-01   12.0     0.00006873      -907.1443044766 -5.31E-04
    29 OT DIIS     0.80E-01   12.0     0.00006459      -907.1447190446 -4.15E-04
    30 OT DIIS     0.80E-01   11.9     0.00006129      -907.1451005512 -3.82E-04
    31 OT DIIS     0.80E-01   11.9     0.00005832      -907.1454708367 -3.70E-04
    32 OT DIIS     0.80E-01   11.9     0.00005590      -907.1458006807 -3.30E-04
    33 OT DIIS     0.80E-01   11.9     0.00005341      -907.1461365147 -3.36E-04
    34 OT DIIS     0.80E-01   11.9     0.00005112      -907.1464475091 -3.11E-04
    35 OT DIIS     0.80E-01   12.0     0.00004883      -907.1467567678 -3.09E-04
    36 OT DIIS     0.80E-01   12.0     0.00004639      -907.1470670389 -3.10E-04
    37 OT DIIS     0.80E-01   12.0     0.00004414      -907.1473421909 -2.75E-04
    38 OT DIIS     0.80E-01   11.9     0.00004178      -907.1476073377 -2.65E-04
    39 OT DIIS     0.80E-01   11.9     0.00003947      -907.1478387235 -2.31E-04
    40 OT DIIS     0.80E-01   11.9     0.00003720      -907.1480506297 -2.12E-04
    41 OT DIIS     0.80E-01   11.9     0.00003499      -907.1482389290 -1.88E-04
    42 OT DIIS     0.80E-01   11.9     0.00003318      -907.1483857363 -1.47E-04
    43 OT DIIS     0.80E-01   11.9     0.00003152      -907.1485038459 -1.18E-04
    44 OT DIIS     0.80E-01   12.0     0.00002993      -907.1486331430 -1.29E-04
    45 OT DIIS     0.80E-01   12.0     0.00002858      -907.1487285276 -9.54E-05
    46 OT DIIS     0.80E-01   12.0     0.00002735      -907.1488210061 -9.25E-05
    47 OT DIIS     0.80E-01   11.9     0.00002599      -907.1489191883 -9.82E-05
    48 OT DIIS     0.80E-01   11.9     0.00002478      -907.1490083905 -8.92E-05
    49 OT DIIS     0.80E-01   11.9     0.00002382      -907.1490726204 -6.42E-05
    50 OT DIIS     0.80E-01   11.9     0.00002275      -907.1491392206 -6.66E-05
    51 OT DIIS     0.80E-01   12.0     0.00002161      -907.1492215118 -8.23E-05
    52 OT DIIS     0.80E-01   12.0     0.00002070      -907.1492787527 -5.72E-05
    53 OT DIIS     0.80E-01   12.0     0.00001984      -907.1493326857 -5.39E-05
    54 OT DIIS     0.80E-01   11.9     0.00001885      -907.1494009767 -6.83E-05
    55 OT DIIS     0.80E-01   11.9     0.00001816      -907.1494566417 -5.57E-05
    56 OT DIIS     0.80E-01   11.9     0.00001772      -907.1494862020 -2.96E-05
    57 OT DIIS     0.80E-01   11.9     0.00001704      -907.1495378581 -5.17E-05
    58 OT DIIS     0.80E-01   11.9     0.00001651      -907.1495838519 -4.60E-05
    59 OT DIIS     0.80E-01   11.9     0.00001606      -907.1496270138 -4.32E-05
    60 OT DIIS     0.80E-01   12.0     0.00001577      -907.1496590409 -3.20E-05
    61 OT DIIS     0.80E-01   11.9     0.00001538      -907.1497060116 -4.70E-05
    62 OT DIIS     0.80E-01   11.9     0.00001505      -907.1497484992 -4.25E-05
    63 OT DIIS     0.80E-01   11.9     0.00001486      -907.1497810570 -3.26E-05
    64 OT DIIS     0.80E-01   11.9     0.00001467      -907.1498083094 -2.73E-05
    65 OT DIIS     0.80E-01   11.9     0.00001443      -907.1498580383 -4.97E-05
    66 OT DIIS     0.80E-01   11.9     0.00001420      -907.1499017267 -4.37E-05
    67 OT DIIS     0.80E-01   12.0     0.00001406      -907.1499272045 -2.55E-05
    68 OT DIIS     0.80E-01   12.0     0.00001388      -907.1499575500 -3.03E-05
    69 OT DIIS     0.80E-01   12.0     0.00001369      -907.1499964637 -3.89E-05
    70 OT DIIS     0.80E-01   11.9     0.00001351      -907.1500316037 -3.51E-05
    71 OT DIIS     0.80E-01   11.9     0.00001338      -907.1500585319 -2.69E-05
    72 OT DIIS     0.80E-01   11.9     0.00001321      -907.1501002298 -4.17E-05
    73 OT DIIS     0.80E-01   11.9     0.00001304      -907.1501415670 -4.13E-05
    74 OT DIIS     0.80E-01   11.9     0.00001285      -907.1501719962 -3.04E-05
    75 OT DIIS     0.80E-01   12.0     0.00001272      -907.1501968710 -2.49E-05
    76 OT DIIS     0.80E-01   12.0     0.00001258      -907.1502269039 -3.00E-05
    77 OT DIIS     0.80E-01   12.0     0.00001243      -907.1502639606 -3.71E-05
    78 OT DIIS     0.80E-01   11.9     0.00001224      -907.1503093823 -4.54E-05
    79 OT DIIS     0.80E-01   11.9     0.00001210      -907.1503423753 -3.30E-05
    80 OT DIIS     0.80E-01   11.9     0.00001197      -907.1503754288 -3.31E-05
    81 OT DIIS     0.80E-01   12.0     0.00001180      -907.1504105532 -3.51E-05
    82 OT DIIS     0.80E-01   11.9     0.00001159      -907.1504537509 -4.32E-05
    83 OT DIIS     0.80E-01   12.0     0.00001127      -907.1505055137 -5.18E-05
    84 OT DIIS     0.80E-01   12.0     0.00001086      -907.1505630957 -5.76E-05
    85 OT SD       0.80E-01   11.9     0.00001142      -907.1506318525 -6.88E-05
    86 OT DIIS     0.80E-01   11.9     0.00001051      -907.1506339534 -2.10E-06
    87 OT DIIS     0.80E-01   11.9     0.00001022      -907.1506362052 -2.25E-06
    88 OT DIIS     0.80E-01   11.9     0.00000993      -907.1506717175 -3.55E-05
    89 OT DIIS     0.80E-01   12.0     0.00001022      -907.1506922521 -2.05E-05
    90 OT DIIS     0.80E-01   12.0     0.00000933      -907.1507173937 -2.51E-05
    91 OT DIIS     0.80E-01   12.0     0.00000891      -907.1507435499 -2.62E-05
    92 OT DIIS     0.80E-01   11.9     0.00000855      -907.1507800305 -3.65E-05
    93 OT DIIS     0.80E-01   11.9     0.00000831      -907.1508027190 -2.27E-05
    94 OT DIIS     0.80E-01   11.9     0.00000795      -907.1508180864 -1.54E-05
    95 OT DIIS     0.80E-01   11.9     0.00000774      -907.1508523397 -3.43E-05
    96 OT DIIS     0.80E-01   12.0     0.00000778      -907.1508544125 -2.07E-06
    97 OT DIIS     0.80E-01   12.0     0.00000722      -907.1508790340 -2.46E-05
    98 OT DIIS     0.80E-01   12.0     0.00000675      -907.1508904976 -1.15E-05
    99 OT DIIS     0.80E-01   12.0     0.00000656      -907.1509012874 -1.08E-05
   100 OT DIIS     0.80E-01   12.0     0.00000643      -907.1509173169 -1.60E-05
   101 OT DIIS     0.80E-01   11.9     0.00000611      -907.1509266631 -9.35E-06
   102 OT DIIS     0.80E-01   11.9     0.00000596      -907.1509388193 -1.22E-05
   103 OT DIIS     0.80E-01   11.9     0.00000575      -907.1509492503 -1.04E-05
   104 OT DIIS     0.80E-01   11.9     0.00000555      -907.1509591100 -9.86E-06
   105 OT DIIS     0.80E-01   11.9     0.00000534      -907.1509702778 -1.12E-05
   106 OT DIIS     0.80E-01   11.9     0.00000511      -907.1509784675 -8.19E-06
   107 OT DIIS     0.80E-01   12.0     0.00000494      -907.1509856433 -7.18E-06

  *** SCF run converged in   107 steps ***


  Electronic density on regular grids:       -407.9999999964        0.0000000036
  Core density on regular grids:              407.9999999747       -0.0000000253
  Total charge density on r-space grids:       -0.0000000216
  Total charge density g-space grids:          -0.0000000216

  Overlap energy of the core charge distribution:               0.00000005965042
  Self energy of the core charge distribution:              -2342.23014539452743
  Core Hamiltonian energy:                                    654.28266766544266
  Hartree energy:                                             991.92535298371024
  Exchange-correlation energy:                               -211.12886095761010

  Total energy:                                              -907.15098564333402

 !-----------------------------------------------------------------------------!
                     Mulliken Population Analysis

 #  Atom  Element  Kind  Atomic population                           Net charge
       1     O        1          6.653035                             -0.653035
       2     O        1          6.639271                             -0.639271
       3     O        1          6.650413                             -0.650413
       4     O        1          6.676054                             -0.676054
       5     O        1          6.658987                             -0.658987
       6     O        1          6.646328                             -0.646328
       7     O        1          6.643695                             -0.643695
       8     O        1          6.653760                             -0.653760
       9     O        1          6.546019                             -0.546019
      10     O        1          6.473508                             -0.473508
      11     O        1          6.528177                             -0.528177
      12     O        1          6.434504                             -0.434504
      13     O        1          6.539443                             -0.539443
      14     O        1          6.447113                             -0.447113
      15     O        1          6.494298                             -0.494298
      16     O        1          6.515977                             -0.515977
      17     O        1          6.603687                             -0.603687
      18     O        1          6.518508                             -0.518508
      19     O        1          6.505356                             -0.505356
      20     O        1          6.530208                             -0.530208
      21     Si       2          3.061425                              0.938575
      22     Si       2          3.092166                              0.907834
      23     Si       2          3.046605                              0.953395
      24     Si       2          3.052406                              0.947594
      25     Si       2          3.033185                              0.966815
      26     Si       2          3.058070                              0.941930
      27     Si       2          3.072189                              0.927811
      28     Si       2          3.066854                              0.933146
      29     H        3          0.816479                              0.183521
      30     H        3          0.819048                              0.180952
      31     H        3          0.808782                              0.191218
      32     H        3          0.833557                              0.166443
      33     O        1          6.544316                             -0.544316
      34     O        1          6.519302                             -0.519302
      35     O        1          6.526224                             -0.526224
      36     O        1          6.516091                             -0.516091
      37     Al       4          1.729653                              1.270347
      38     Al       4          1.679930                              1.320070
      39     Al       4          1.669676                              1.330324
      40     Al       4          1.671589                              1.328411
      41     O        1          6.577188                             -0.577188
      42     O        1          6.653418                             -0.653418
      43     O        1          6.657303                             -0.657303
      44     O        1          6.650017                             -0.650017
      45     O        1          6.497219                             -0.497219
      46     O        1          6.655181                             -0.655181
      47     O        1          6.650165                             -0.650165
      48     O        1          6.655144                             -0.655144
      49     O        1          6.524142                             -0.524142
      50     O        1          6.512945                             -0.512945
      51     O        1          6.537166                             -0.537166
      52     O        1          6.494624                             -0.494624
      53     O        1          6.510664                             -0.510664
      54     O        1          6.582974                             -0.582974
      55     O        1          6.509419                             -0.509419
      56     O        1          6.494701                             -0.494701
      57     O        1          6.584482                             -0.584482
      58     O        1          6.521986                             -0.521986
      59     O        1          6.517538                             -0.517538
      60     O        1          6.541321                             -0.541321
      61     Si       2          3.083807                              0.916193
      62     Si       2          3.068595                              0.931405
      63     Si       2          3.040872                              0.959128
      64     Si       2          3.055695                              0.944305
      65     Si       2          3.084227                              0.915773
      66     Si       2          3.055966                              0.944034
      67     Si       2          3.059957                              0.940043
      68     H        3          0.827996                              0.172004
      69     H        3          0.806565                              0.193435
      70     H        3          0.802152                              0.197848
      71     H        3          0.834359                              0.165641
      72     O        1          6.524404                             -0.524404
      73     O        1          6.527570                             -0.527570
      74     O        1          6.535794                             -0.535794
      75     O        1          6.523704                             -0.523704
      76     Al       4          1.670611                              1.329389
      77     Al       4          1.651676                              1.348324
      78     Al       4          1.695988                              1.304012
      79     Al       4          1.678492                              1.321508
      80     O        1          6.383533                             -0.383533
      81     O        1          6.371201                             -0.371201
      82     O        1          6.465332                             -0.465332
      83     H        3          0.803575                              0.196425
      84     H        3          0.791163                              0.208837
      85     H        3          0.809268                              0.190732
      86     H        3          0.789652                              0.210348
      87     H        3          0.795955                              0.204045
      88     H        3          0.811812                              0.188188
      89     H        3          0.818652                              0.181348
      90     H        3          0.770018                              0.229982
      91     H        3          0.788832                              0.211168
      92     H        3          0.769091                              0.230909
 # Total charge                            408.000000                  0.000000

 !-----------------------------------------------------------------------------!

 !-----------------------------------------------------------------------------!
                           Hirshfeld Charges

  #Atom  Element  Kind  Ref Charge     Population                    Net charge
      1       O      1       6.000          6.292                        -0.292
      2       O      1       6.000          6.289                        -0.289
      3       O      1       6.000          6.293                        -0.293
      4       O      1       6.000          6.298                        -0.298
      5       O      1       6.000          6.293                        -0.293
      6       O      1       6.000          6.295                        -0.295
      7       O      1       6.000          6.288                        -0.288
      8       O      1       6.000          6.291                        -0.291
      9       O      1       6.000          6.292                        -0.292
     10       O      1       6.000          6.208                        -0.208
     11       O      1       6.000          6.246                        -0.246
     12       O      1       6.000          6.278                        -0.278
     13       O      1       6.000          6.296                        -0.296
     14       O      1       6.000          6.207                        -0.207
     15       O      1       6.000          6.267                        -0.267
     16       O      1       6.000          6.277                        -0.277
     17       O      1       6.000          6.266                        -0.266
     18       O      1       6.000          6.281                        -0.281
     19       O      1       6.000          6.272                        -0.272
     20       O      1       6.000          6.245                        -0.245
     21       Si     2       4.000          3.452                         0.548
     22       Si     2       4.000          3.453                         0.547
     23       Si     2       4.000          3.452                         0.548
     24       Si     2       4.000          3.446                         0.554
     25       Si     2       4.000          3.440                         0.560
     26       Si     2       4.000          3.444                         0.556
     27       Si     2       4.000          3.456                         0.544
     28       Si     2       4.000          3.447                         0.553
     29       H      3       1.000          0.869                         0.131
     30       H      3       1.000          0.882                         0.118
     31       H      3       1.000          0.872                         0.128
     32       H      3       1.000          0.889                         0.111
     33       O      1       6.000          6.289                        -0.289
     34       O      1       6.000          6.291                        -0.291
     35       O      1       6.000          6.283                        -0.283
     36       O      1       6.000          6.289                        -0.289
     37       Al     4       3.000          2.561                         0.439
     38       Al     4       3.000          2.559                         0.441
     39       Al     4       3.000          2.568                         0.432
     40       Al     4       3.000          2.567                         0.433
     41       O      1       6.000          6.357                        -0.357
     42       O      1       6.000          6.292                        -0.292
     43       O      1       6.000          6.292                        -0.292
     44       O      1       6.000          6.296                        -0.296
     45       O      1       6.000          6.248                        -0.248
     46       O      1       6.000          6.301                        -0.301
     47       O      1       6.000          6.289                        -0.289
     48       O      1       6.000          6.297                        -0.297
     49       O      1       6.000          6.281                        -0.281
     50       O      1       6.000          6.271                        -0.271
     51       O      1       6.000          6.249                        -0.249
     52       O      1       6.000          6.262                        -0.262
     53       O      1       6.000          6.276                        -0.276
     54       O      1       6.000          6.265                        -0.265
     55       O      1       6.000          6.271                        -0.271
     56       O      1       6.000          6.320                        -0.320
     57       O      1       6.000          6.265                        -0.265
     58       O      1       6.000          6.300                        -0.300
     59       O      1       6.000          6.279                        -0.279
     60       O      1       6.000          6.287                        -0.287
     61       Si     2       4.000          3.494                         0.506
     62       Si     2       4.000          3.448                         0.552
     63       Si     2       4.000          3.451                         0.549
     64       Si     2       4.000          3.443                         0.557
     65       Si     2       4.000          3.474                         0.526
     66       Si     2       4.000          3.446                         0.554
     67       Si     2       4.000          3.466                         0.534
     68       H      3       1.000          0.881                         0.119
     69       H      3       1.000          0.877                         0.123
     70       H      3       1.000          0.845                         0.155
     71       H      3       1.000          0.883                         0.117
     72       O      1       6.000          6.287                        -0.287
     73       O      1       6.000          6.286                        -0.286
     74       O      1       6.000          6.270                        -0.270
     75       O      1       6.000          6.291                        -0.291
     76       Al     4       3.000          2.568                         0.432
     77       Al     4       3.000          2.561                         0.439
     78       Al     4       3.000          2.576                         0.424
     79       Al     4       3.000          2.576                         0.424
     80       O      1       6.000          6.217                        -0.217
     81       O      1       6.000          6.222                        -0.222
     82       O      1       6.000          6.304                        -0.304
     83       H      3       1.000          0.886                         0.114
     84       H      3       1.000          0.886                         0.114
     85       H      3       1.000          0.837                         0.163
     86       H      3       1.000          0.808                         0.192
     87       H      3       1.000          0.843                         0.157
     88       H      3       1.000          0.914                         0.086
     89       H      3       1.000          0.840                         0.160
     90       H      3       1.000          0.803                         0.197
     91       H      3       1.000          0.838                         0.162
     92       H      3       1.000          0.803                         0.197

  Total Charge                                                           -0.000
 !-----------------------------------------------------------------------------!

 ENERGY| Total FORCE_EVAL ( QS ) energy [hartree]           -907.150985643334025

 -------------------------------------------------------------------------------
 -                                                                             -
 -                                DBCSR STATISTICS                             -
 -                                                                             -
 -------------------------------------------------------------------------------
 COUNTER                                    TOTAL       BLAS       SMM       ACC
 flops     5 x    12 x    12                51840       0.0%    100.0%      0.0%     
 flops    12 x    12 x  1052               302976       0.0%    100.0%      0.0%     
 flops     5 x    32 x    12               414720       0.0%    100.0%      0.0%     
 flops     5 x    12 x    32               414720       0.0%    100.0%      0.0%     
 flops    13 x    12 x    12               554112       0.0%    100.0%      0.0%     
 flops    12 x    32 x  1052              2423808       0.0%    100.0%      0.0%     
 flops    32 x    12 x  1052              2423808       0.0%    100.0%      0.0%     
 flops    13 x    32 x    12              4432896       0.0%    100.0%      0.0%     
 flops    13 x    12 x    32              4432896       0.0%    100.0%      0.0%     
 flops     5 x    32 x    32              7741440       0.0%    100.0%      0.0%     
 flops     5 x    12 x     5             28776000       0.0%    100.0%      0.0%     
 flops    32 x    32 x  1052             45244416       0.0%    100.0%      0.0%     
 flops    13 x    32 x    32             82747392       0.0%    100.0%      0.0%     
 flops     5 x     5 x   204            131733000       0.0%    100.0%      0.0%     
 flops     5 x    12 x    13            305791200       0.0%    100.0%      0.0%     
 flops    13 x    12 x     5            305791200       0.0%    100.0%      0.0%     
 flops     5 x    32 x     5            460416000       0.0%    100.0%      0.0%     
 flops     5 x    13 x   204           1283621040       0.0%    100.0%      0.0%     
 flops    13 x     5 x   204           1303670160       0.0%    100.0%      0.0%     
 flops    13 x    12 x    13           3563926080       0.0%    100.0%      0.0%     
 flops     5 x    32 x    13           4892659200       0.0%    100.0%      0.0%     
 flops    13 x    32 x     5           4892659200       0.0%    100.0%      0.0%     
 flops    13 x    13 x   204          15338165544       0.0%    100.0%      0.0%     
 flops   204 x   204 x   204          16249216896       0.0%    100.0%      0.0%     
 flops   204 x   204 x  1052          37388147328       0.0%    100.0%      0.0%     
 flops  1052 x   204 x   204          46669514112       0.0%    100.0%      0.0%     
 flops  1052 x   204 x  1052          48765805056       0.0%    100.0%      0.0%     
 flops    13 x    32 x    13          57022817280       0.0%    100.0%      0.0%     
 flops inhomo. stacks                           0       0.0%      0.0%      0.0%
 flops total                       238.753894E+09       0.0%    100.0%      0.0%
 flops max/rank                    238.753894E+09       0.0%    100.0%      0.0%
 matmuls inhomo. stacks                         0       0.0%      0.0%      0.0%
 matmuls total                            9570887       0.0%    100.0%      0.0%
 number of processed stacks                 13477       0.0%    100.0%      0.0%
 average stack size                                     0.0     710.2       0.0
 marketing flops                   297.974399E+09
 -------------------------------------------------------------------------------
 # multiplications                           2358
 max memory usage/rank               2.310074E+09
 # max total images/rank                        1
 # max 3D layers                                1
 # MPI messages exchanged                       0
 -------------------------------------------------------------------------------
 -                                                                             -
 -                      DBCSR MESSAGE PASSING PERFORMANCE                      -
 -                                                                             -
 -------------------------------------------------------------------------------
 ROUTINE             CALLS      AVE VOLUME [Bytes]
 MP_Bcast               29                     12.
 MP_Allreduce        12897                     21.
 MP_Alltoall          7736                 115693.
 MP_ISend             9428                  15274.
 MP_IRecv             9428                  15274.
 -------------------------------------------------------------------------------

 -------------------------------------------------------------------------------
 -                                                                             -
 -                                DBM STATISTICS                               -
 -                                                                             -
 -------------------------------------------------------------------------------
    M  x    N  x    K                                          COUNT     PERCENT
 -------------------------------------------------------------------------------

 -------------------------------------------------------------------------------
 -                                                                             -
 -                                GRID STATISTICS                              -
 -                                                                             -
 -------------------------------------------------------------------------------
 LP    KERNEL             BACKEND                              COUNT     PERCENT
 4     collocate ortho    CPU                                4259520      32.96%
 4     integrate ortho    CPU                                4220080      32.66%
 3     collocate ortho    CPU                                1894212      14.66%
 3     integrate ortho    CPU                                1876673      14.52%
 2     collocate ortho    CPU                                 336744       2.61%
 2     integrate ortho    CPU                                 333626       2.58%
 0     collocate general  CPU                                    828       0.01%
 0     integrate general  CPU                                    736       0.01%
 -------------------------------------------------------------------------------

 MEMORY| Estimated peak process memory [MiB]                                2193

 -------------------------------------------------------------------------------
 -                                                                             -
 -                         MESSAGE PASSING PERFORMANCE                         -
 -                                                                             -
 -------------------------------------------------------------------------------

 ROUTINE             CALLS      AVE VOLUME [Bytes]
 MP_Group                4
 MP_Bcast             7454                   1112.
 MP_Allreduce        18940                    922.
 MP_Sync               111
 -------------------------------------------------------------------------------


 -------------------------------------------------------------------------------
 -                                                                             -
 -                           R E F E R E N C E S                               -
 -                                                                             -
 -------------------------------------------------------------------------------
 
 CP2K version 2025.1, the CP2K developers group (2025).
 CP2K is freely available from https://www.cp2k.org/ .
 
 T. D. Kuehne, M. Iannuzzi, M. Del Ben, V. V. Rybkin, P. Seewald, F. Stein, T. 
 Laino, R. Z. Khaliullin, O. Schuett, F. Schiffmann, D. Golze, J. Wilhelm, S. 
 Chulkov, M. H. Bani-Hashemian, V. Weber, U. Borstnik, M. Taillefumier, A. S. 
 Jakobovits, A. Lazzaro, H. Pabst, T. Mueller, R. Schade, M. Guidon, S. 
 Andermatt, N. Holmberg, G. K. Schenter, A. Hehn, A. Bussy, F. Belleflamme, G. 
 Tabacchi, A. Gloess, M. Lass, I. Bethune, C. J. Mundy, C. Plessl, M. Watkins, 
 J. VandeVondele, M. Krack, J. Hutter.
 J. Chem. Phys. 152, 194103 (2020).
 CP2K: An electronic structure and molecular dynamics software package - 
 Quickstep: Efficient and accurate electronic structure calculations.
 https://doi.org/10.1063/5.0007045

 O. Schuett, P. Messmer, J. Hutter, J. VandeVondele.
 Electronic Structure Calculations on Graphics Processing Units, 173-190 (2016).
 GPU-Accelerated Sparse Matrix-Matrix Multiplication for Linear Scaling Density 
 Functional Theory.
 https://doi.org/10.1002/9781118670712.ch8

 A. Heinecke, G. Henry, M. Hutchinson, H. Pabst.
 Proceedings of Intl. Supercomputing Conference, 981-991 (2016).
 LIBXSMM: Accelerating Small Matrix Multiplications by Runtime Code Generation.
 https://doi.org/10.1109/SC.2016.83

 J. Hutter, M. Iannuzzi, F. Schiffmann, J. VandeVondele.
 WIREs Comput Mol Sci. 4, 15-25 (2014).
 CP2K: atomistic simulations of condensed matter systems.
 https://doi.org/10.1002/wcms.1159

 U. Borstnik, J. VandeVondele, V. Weber, J. Hutter.
 Parallel Comput. 40, 47-58 (2014).
 Sparse matrix multiplication: The distributed block-compressed sparse row 
 library.
 https://doi.org/10.1016/j.parco.2014.03.012

 A. Marek, V. Blum, R. Johanni, V. Havu, B. Lang, T. Auckenthaler, A. Heinecke, 
 H. Bungartz, H. Lederer.
 J. Phys. Condens. Matter 26, 213201 (2014).
 The ELPA library: scalable parallel eigenvalue solutions for electronic 
 structure theory and computational science.
 https://doi.org/10.1088/0953-8984/26/21/213201

 J. VandeVondele, J. Hutter.
 J. Chem. Phys. 127, 114105 (2007).
 Gaussian basis sets for accurate calculations on molecular systems in gas and 
 condensed phases.
 https://doi.org/10.1063/1.2770708

 J. VandeVondele, M. Krack, F. Mohamed, M. Parrinello, T. Chassaing, J. Hutter.
 Comput. Phys. Commun. 167, 103-128 (2005).
 QUICKSTEP: Fast and accurate density functional calculations using a mixed 
 Gaussian and plane waves approach.
 https://doi.org/10.1016/j.cpc.2004.12.014

 M. Krack.
 Theor. Chem. Acc. 114, 145-152 (2005).
 Pseudopotentials for H to Kr optimized for gradient-corrected 
 exchange-correlation functionals.
 https://doi.org/10.1007/s00214-005-0655-y

 M. Frigo, S. G. Johnson.
 Proc. IEEE 93, 216-231 (2005).
 The design and implementation of FFTW3.
 https://doi.org/10.1109/JPROC.2004.840301

 J. VandeVondele, J. Hutter.
 J. Chem. Phys. 118, 4365-4369 (2003).
 An efficient orbital transformation method for electronic structure 
 calculations.
 https://doi.org/10.1063/1.1543154

 C. Hartwigsen, S. Goedecker, J. Hutter.
 Phys. Rev. B 58, 3641-3662 (1998).
 Relativistic separable dual-space Gaussian pseudopotentials from H to Rn.
 https://doi.org/10.1103/PhysRevB.58.3641

 G. Lippert, J. Hutter, M. Parrinello.
 Mol. Phys. 92, 477-487 (1997).
 A hybrid Gaussian and plane wave density functional scheme.
 https://doi.org/10.1080/002689797170220

 S. Goedecker, M. Teter, J. Hutter.
 Phys. Rev. B 54, 1703-1710 (1996).
 Separable dual-space Gaussian pseudopotentials.
 https://doi.org/10.1103/PhysRevB.54.1703

 J. P. Perdew, K. Burke, M. Ernzerhof.
 Phys. Rev. Lett. 77, 3865-3868 (1996).
 Generalized gradient approximation made simple.
 https://doi.org/10.1103/PhysRevLett.77.3865


 -------------------------------------------------------------------------------
 -                                                                             -
 -                                T I M I N G                                  -
 -                                                                             -
 -------------------------------------------------------------------------------
 SUBROUTINE                       CALLS  ASD         SELF TIME        TOTAL TIME
                                MAXIMUM       AVERAGE  MAXIMUM  AVERAGE  MAXIMUM
 CP2K                                 1  1.0    0.026    0.026 1291.134 1291.134
 qs_energies                          1  2.0    0.000    0.000 1289.094 1289.094
 scf_env_do_scf                       1  3.0    0.000    0.000 1279.197 1279.197
 scf_env_do_scf_inner_loop          107  4.0    0.014    0.014 1270.020 1270.020
 qs_ks_update_qs_env                108  5.0    0.001    0.001  914.762  914.762
 rebuild_ks_matrix                  107  6.0    0.000    0.000  914.577  914.577
 qs_ks_build_kohn_sham_matrix       107  7.0    0.014    0.014  914.577  914.577
 fft_wrap_pw1pw2                   1825 10.3    0.023    0.023  544.080  544.080
 fft_wrap_pw1pw2_200               1180 11.7   13.628   13.628  534.437  534.437
 qs_vxc_create                      107  8.0    0.002    0.002  515.511  515.511
 xc_vxc_pw_create                   107  9.0   32.025   32.025  515.509  515.509
 fft3d_s                           1826 12.3  358.436  358.436  358.466  358.466
 qs_rho_update_rho_low              108  5.0    0.001    0.001  350.635  350.635
 calculate_rho_elec                 108  6.0    3.785    3.785  350.635  350.635
 xc_pw_derive                       642 11.0    0.005    0.005  319.690  319.690
 sum_up_and_integrate               107  8.0    0.002    0.002  315.676  315.676
 integrate_v_rspace                 107  9.0    0.105    0.105  295.223  295.223
 xc_rho_set_and_dset_create         107 10.0   22.443   22.443  243.092  243.092
 grid_collocate_task_list           108  7.0  239.509  239.509  239.509  239.509
 grid_integrate_task_list           107 10.0  237.960  237.960  237.960  237.960
 xc_pw_divergence                   107 10.0    0.002    0.002  225.724  225.724
 density_rs2pw                      108  7.0    0.005    0.005  107.341  107.341
 pw_scatter_s                       964 12.7   71.594   71.594   71.594   71.594
 potential_pw2rs                    107 10.0    0.104    0.104   57.158   57.158
 xc_functional_eval                 107 11.0    0.001    0.001   55.154   55.154
 pbe_lda_eval                       107 12.0   55.153   55.153   55.153   55.153
 pw_gather_s                        861 11.9   46.465   46.465   46.465   46.465
 pw_axpy                           1074  9.3   44.633   44.633   44.633   44.633
 pw_derive                          963 11.3   31.496   31.496   31.496   31.496
 pw_copy_from_array                 964 12.7   28.448   28.448   28.448   28.448
 pw_poisson_solve                   107  8.0    0.001    0.001   25.966   25.966
 -------------------------------------------------------------------------------

 The number of warnings for this run is : 0
 
 -------------------------------------------------------------------------------
  **** **** ******  **  PROGRAM ENDED AT                 2026-10-08 03:04:48.226
 ***** ** ***  *** **   PROGRAM RAN ON                                    r6i5n2
 **    ****   ******    PROGRAM RAN BY                                   a266017
 ***** **    ** ** **   PROGRAM PROCESS ID                                976335
  **** **  *******  **  PROGRAM STOPPED IN /home/g7/a266017/VASP/cp2k/runs/rib_y
                                           _o00_al
