 DBCSR| CPU Multiplication driver                                           XSMM (U)
 DBCSR| Multrec recursion limit                                              512 (U)
 DBCSR| Multiplication stack size                                           1000 (D)
 DBCSR| Maximum elements for images                                    UNLIMITED (U)
 DBCSR| Multiplicative factor virtual images                                   1 (U)
 DBCSR| Use multiplication densification                                       T (D)
 DBCSR| Multiplication size stacks                                             3 (U)
 DBCSR| Use memory pool for CPU allocation                                     F (U)
 DBCSR| Number of 3D layers                                               SINGLE (U)
 DBCSR| Use MPI memory allocation                                              F (U)
 DBCSR| Use RMA algorithm                                                      F (U)
 DBCSR| Use Communication thread                                               T (U)
 DBCSR| Communication thread load                                             87 (D)
 DBCSR| MPI: My process id                                                     0
 DBCSR| MPI: Number of processes                                               1
 DBCSR| OMP: Current number of threads                                         1
 DBCSR| OMP: Max number of threads                                             1
 DBCSR| Split modifier for TAS multiplication algorithm                  1.0E+00 (U)


  **** **** ******  **  PROGRAM STARTED AT               2026-10-07 16:51:43.797
 ***** ** ***  *** **   PROGRAM STARTED ON                                r6i5n2
 **    ****   ******    PROGRAM STARTED BY                               a266017
 ***** **    ** ** **   PROGRAM PROCESS ID                                972840
  **** **  *******  **  PROGRAM STARTED IN /home/g7/a266017/VASP/cp2k/runs/rib_x
                                           _o00_si

 CP2K| version string:                                       CP2K version 2025.1
 CP2K| source code revision number:                                  git:9635df4
 CP2K| cp2kflags: omp libint fftw3 libxc libgrpp elpa parallel scalapack mpi_f08
 CP2K|             cosma xsmm plumed2 spglib mkl sirius libvori libbqb libvdwxc
 CP2K|             hdf5
 CP2K| is freely available from                            https://www.cp2k.org/
 CP2K| Program compiled at                          Fri Mar 13 14:45:02 JST 2026
 CP2K| Program compiled on                            s86fs1.tokai-sc.jaea.go.jp
 CP2K| Program compiled for                                                local
 CP2K| Data directory path                                                 /data
 CP2K| Input file name                                                   opt.inp
 
 GLOBAL| Force Environment number                                              1
 GLOBAL| Basis set file name                                        BASIS_MOLOPT
 GLOBAL| Potential file name                                      GTH_POTENTIALS
 GLOBAL| MM Potential file name                                     MM_POTENTIAL
 GLOBAL| Coordinate file name                                          start.xyz
 GLOBAL| Method name                                                        CP2K
 GLOBAL| Project name                                                        opt
 GLOBAL| Run type                                                        GEO_OPT
 GLOBAL| FFT library                                                       FFTW3
 GLOBAL| Diagonalization library                                            ELPA
 GLOBAL| DGEMM library                                                      BLAS
 GLOBAL| Minimum number of eigenvectors for ELPA usage                        16
 GLOBAL| Orthonormality check for eigenvectors                          DISABLED
 GLOBAL| Matrix multiplication library                                     COSMA
 GLOBAL| All-to-all communication in single precision                          F
 GLOBAL| FFTs using library dependent lengths                                  F
 GLOBAL| Grid backend                                                       AUTO
 GLOBAL| Global print level                                                  LOW
 GLOBAL| MPI I/O enabled                                                       T
 GLOBAL| Total number of message passing processes                             1
 GLOBAL| Number of threads for this process                                    1
 GLOBAL| This output is from process                                           0
 GLOBAL| OpenMP stack size per thread (OMP_STACKSIZE)                    default
 GLOBAL| CPU model name                Intel(R) Xeon(R) Gold 6242R CPU @ 3.10GHz
 GLOBAL| CPUID                                                              1003

 MEMORY| system memory details [Kb]
 MEMORY|                        rank 0           min           max       average
 MEMORY| MemTotal            196248260     196248260     196248260     196248260
 MEMORY| MemFree             181946052     181946052     181946052     181946052
 MEMORY| Buffers                     0             0             0             0
 MEMORY| Cached                9605600       9605600       9605600       9605600
 MEMORY| Slab                  1397652       1397652       1397652       1397652
 MEMORY| SReclaimable           245920        245920        245920        245920
 MEMORY| MemLikelyFree       191797572     191797572     191797572     191797572

 
 GENERATE|  Preliminary Number of Bonds generated:                             0
 GENERATE|  Achieved consistency in connectivity generation.

 *******************************************************************************
 *   ___                                                                       *
 *  /   \                                                                      *
 * [ABORT]                                                                     *
 *  \___/  The specified OLD file <BASIS_MOLOPT> cannot be opened. It does not *
 *    |                      exist. Data directory path: /data                 *
 *  O/|                                                                        *
 * /| |                                                                        *
 * / \                                                   common/cp_files.F:403 *
 *******************************************************************************


 ===== Routine Calling Stack ===== 

            3 read_qs_kind
            2 create_qs_kind_set
            1 CP2K
 DBCSR| CPU Multiplication driver                                           XSMM (U)
 DBCSR| Multrec recursion limit                                              512 (U)
 DBCSR| Multiplication stack size                                           1000 (D)
 DBCSR| Maximum elements for images                                    UNLIMITED (U)
 DBCSR| Multiplicative factor virtual images                                   1 (U)
 DBCSR| Use multiplication densification                                       T (D)
 DBCSR| Multiplication size stacks                                             3 (U)
 DBCSR| Use memory pool for CPU allocation                                     F (U)
 DBCSR| Number of 3D layers                                               SINGLE (U)
 DBCSR| Use MPI memory allocation                                              F (U)
 DBCSR| Use RMA algorithm                                                      F (U)
 DBCSR| Use Communication thread                                               T (U)
 DBCSR| Communication thread load                                             87 (D)
 DBCSR| MPI: My process id                                                     0
 DBCSR| MPI: Number of processes                                               1
 DBCSR| OMP: Current number of threads                                         1
 DBCSR| OMP: Max number of threads                                             1
 DBCSR| Split modifier for TAS multiplication algorithm                  1.0E+00 (U)


  **** **** ******  **  PROGRAM STARTED AT               2026-10-07 18:11:35.713
 ***** ** ***  *** **   PROGRAM STARTED ON                                r6i5n2
 **    ****   ******    PROGRAM STARTED BY                               a266017
 ***** **    ** ** **   PROGRAM PROCESS ID                                974527
  **** **  *******  **  PROGRAM STARTED IN /home/g7/a266017/VASP/cp2k/runs/rib_x
                                           _o00_si

 CP2K| version string:                                       CP2K version 2025.1
 CP2K| source code revision number:                                  git:9635df4
 CP2K| cp2kflags: omp libint fftw3 libxc libgrpp elpa parallel scalapack mpi_f08
 CP2K|             cosma xsmm plumed2 spglib mkl sirius libvori libbqb libvdwxc
 CP2K|             hdf5
 CP2K| is freely available from                            https://www.cp2k.org/
 CP2K| Program compiled at                          Fri Mar 13 14:45:02 JST 2026
 CP2K| Program compiled on                            s86fs1.tokai-sc.jaea.go.jp
 CP2K| Program compiled for                                                local
 CP2K| Data directory path                /home/center/app/CP2K/cp2k-2025.1/data
 CP2K| Input file name                                                   opt.inp
 
 GLOBAL| Force Environment number                                              1
 GLOBAL| Basis set file name                                        BASIS_MOLOPT
 GLOBAL| Potential file name                                      GTH_POTENTIALS
 GLOBAL| MM Potential file name                                     MM_POTENTIAL
 GLOBAL| Coordinate file name                                          start.xyz
 GLOBAL| Method name                                                        CP2K
 GLOBAL| Project name                                                        opt
 GLOBAL| Run type                                                        GEO_OPT
 GLOBAL| FFT library                                                       FFTW3
 GLOBAL| Diagonalization library                                            ELPA
 GLOBAL| DGEMM library                                                      BLAS
 GLOBAL| Minimum number of eigenvectors for ELPA usage                        16
 GLOBAL| Orthonormality check for eigenvectors                          DISABLED
 GLOBAL| Matrix multiplication library                                     COSMA
 GLOBAL| All-to-all communication in single precision                          F
 GLOBAL| FFTs using library dependent lengths                                  F
 GLOBAL| Grid backend                                                       AUTO
 GLOBAL| Global print level                                                  LOW
 GLOBAL| MPI I/O enabled                                                       T
 GLOBAL| Total number of message passing processes                             1
 GLOBAL| Number of threads for this process                                    1
 GLOBAL| This output is from process                                           0
 GLOBAL| OpenMP stack size per thread (OMP_STACKSIZE)                    default
 GLOBAL| CPU model name                Intel(R) Xeon(R) Gold 6242R CPU @ 3.10GHz
 GLOBAL| CPUID                                                              1003

 MEMORY| system memory details [Kb]
 MEMORY|                        rank 0           min           max       average
 MEMORY| MemTotal            196248260     196248260     196248260     196248260
 MEMORY| MemFree             166833100     166833100     166833100     166833100
 MEMORY| Buffers                     0             0             0             0
 MEMORY| Cached               22637352      22637352      22637352      22637352
 MEMORY| Slab                  2998140       2998140       2998140       2998140
 MEMORY| SReclaimable           241560        241560        241560        241560
 MEMORY| MemLikelyFree       189712012     189712012     189712012     189712012

 
 GENERATE|  Preliminary Number of Bonds generated:                             0
 GENERATE|  Achieved consistency in connectivity generation.

 *******************************************************************************
 *******************************************************************************
 **                                                                           **
 **     #####                         ##              ##                      **
 **    ##   ##            ##          ##              ##                      **
 **   ##     ##                       ##            ######                    **
 **   ##     ##  ##   ##  ##   #####  ##  ##   ####   ##    #####    #####    **
 **   ##     ##  ##   ##  ##  ##      ## ##   ##      ##   ##   ##  ##   ##   **
 **   ##  ## ##  ##   ##  ##  ##      ####     ###    ##   ######   ######    **
 **    ##  ###   ##   ##  ##  ##      ## ##      ##   ##   ##       ##        **
 **     #######   #####   ##   #####  ##  ##  ####    ##    #####   ##        **
 **           ##                                                    ##        **
 **                                                                           **
 **                                                ... make the atoms dance   **
 **                                                                           **
 **            Copyright (C) by CP2K developers group (2000-2025)             **
 **                      J. Chem. Phys. 152, 194103 (2020)                    **
 **                                                                           **
 *******************************************************************************


 TOTAL NUMBERS AND MAXIMUM NUMBERS

  Total number of            - Atomic kinds:                                   4
                             - Atoms:                                         96
                             - Shell sets:                                    96
                             - Shells:                                       170
                             - Primitive Cartesian functions:                458
                             - Cartesian basis functions:                    318
                             - Spherical basis functions:                    318

  Maximum angular momentum of- Orbital basis functions:                        1
                             - Local part of the GTH pseudopotential:          2
                             - Non-local part of the GTH pseudopotential:      2


 SCF PARAMETERS         Density guess:                                    ATOMIC
                        --------------------------------------------------------
                        max_scf:                                             200
                        max_scf_history:                                       0
                        max_diis:                                              4
                        --------------------------------------------------------
                        eps_scf:                                        1.00E-05
                        eps_scf_history:                                0.00E+00
                        eps_diis:                                       1.00E-01
                        eps_eigval:                                     1.00E-05
                        --------------------------------------------------------
                        level_shift [a.u.]:                             0.000000
                        --------------------------------------------------------
                        No outer SCF

 *******************************************************************************
 ***                     STARTING GEOMETRY OPTIMIZATION                      ***
 ***                                 L-BFGS                                  ***
 *******************************************************************************

 --------------------------
 OPTIMIZATION STEP:      1
 --------------------------

 Number of electrons:                                                        416
 Number of occupied orbitals:                                                208
 Number of molecular orbitals:                                               208

 Number of orbital functions:                                                318
 Number of independent orbital functions:                                    318

 Extrapolation method: initial_guess


 SCF WAVEFUNCTION OPTIMIZATION

  ----------------------------------- OT ---------------------------------------
  Minimizer      : DIIS                : direct inversion
                                         in the iterative subspace
                                         using   7 DIIS vectors
                                         safer DIIS on
  Preconditioner : FULL_SINGLE_INVERSE : inversion of 
                                         H + eS - 2*(Sc)(c^T*H*c+const)(Sc)^T
  Precond_solver : DEFAULT
  stepsize       :    0.08000000                  energy_gap     :    0.08000000
  eps_taylor     :   0.10000E-15                  max_taylor     :             4
  ----------------------------------- OT ---------------------------------------

  Step     Update method      Time    Convergence         Total energy    Change
  ------------------------------------------------------------------------------
     1 OT DIIS     0.80E-01    7.1     0.04921264      -897.8224778354 -8.98E+02
     2 OT DIIS     0.80E-01    7.9     0.03717293      -907.0061617007 -9.18E+00
     3 OT DIIS     0.80E-01    7.9     0.03215991      -911.4578026813 -4.45E+00
     4 OT DIIS     0.80E-01    7.9     0.02297855      -915.0111624811 -3.55E+00
     5 OT DIIS     0.80E-01    7.9     0.01297991      -917.8577163734 -2.85E+00
     6 OT DIIS     0.80E-01    7.9     0.00886384      -918.5888429301 -7.31E-01
     7 OT DIIS     0.80E-01    7.9     0.00690223      -919.0585425435 -4.70E-01
     8 OT DIIS     0.80E-01    7.9     0.00534402      -919.2998490133 -2.41E-01
     9 OT DIIS     0.80E-01    7.9     0.00334822      -919.5048102029 -2.05E-01
    10 OT DIIS     0.80E-01    7.9     0.00248208      -919.5726982379 -6.79E-02
    11 OT DIIS     0.80E-01    7.9     0.00169268      -919.6208818266 -4.82E-02
    12 OT DIIS     0.80E-01    7.9     0.00121519      -919.6487518845 -2.79E-02
    13 OT DIIS     0.80E-01    7.9     0.00105169      -919.6623601557 -1.36E-02
    14 OT DIIS     0.80E-01    7.9     0.00075721      -919.6748869030 -1.25E-02
    15 OT DIIS     0.80E-01    7.9     0.00059171      -919.6840402763 -9.15E-03
    16 OT DIIS     0.80E-01    7.9     0.00045103      -919.6904270038 -6.39E-03
    17 OT DIIS     0.80E-01    7.9     0.00035988      -919.6941931868 -3.77E-03
    18 OT DIIS     0.80E-01    7.9     0.00028002      -919.6966408111 -2.45E-03
    19 OT DIIS     0.80E-01    7.9     0.00023120      -919.6980427376 -1.40E-03
    20 OT DIIS     0.80E-01    7.9     0.00018992      -919.6990810663 -1.04E-03
    21 OT DIIS     0.80E-01    7.9     0.00015833      -919.6997972509 -7.16E-04
    22 OT DIIS     0.80E-01    7.9     0.00013477      -919.7003270532 -5.30E-04
    23 OT DIIS     0.80E-01    7.9     0.00011297      -919.7007478454 -4.21E-04
    24 OT DIIS     0.80E-01    7.9     0.00009791      -919.7010006893 -2.53E-04
    25 OT DIIS     0.80E-01    7.9     0.00008046      -919.7012587555 -2.58E-04
    26 OT DIIS     0.80E-01    7.9     0.00006882      -919.7014065560 -1.48E-04
    27 OT DIIS     0.80E-01    7.9     0.00006105      -919.7014931019 -8.65E-05
    28 OT DIIS     0.80E-01    7.9     0.00005295      -919.7015736532 -8.06E-05
    29 OT DIIS     0.80E-01    7.9     0.00004654      -919.7016328711 -5.92E-05
    30 OT DIIS     0.80E-01    7.9     0.00004062      -919.7016815471 -4.87E-05
    31 OT DIIS     0.80E-01    7.9     0.00003613      -919.7017152730 -3.37E-05
    32 OT DIIS     0.80E-01    7.9     0.00003282      -919.7017402271 -2.50E-05
    33 OT DIIS     0.80E-01    7.9     0.00003000      -919.7017616764 -2.14E-05
    34 OT DIIS     0.80E-01    7.9     0.00002819      -919.7017765255 -1.48E-05
    35 OT DIIS     0.80E-01    7.9     0.00002667      -919.7017904868 -1.40E-05
    36 OT DIIS     0.80E-01    7.9     0.00002507      -919.7018054267 -1.49E-05
    37 OT DIIS     0.80E-01    7.9     0.00002388      -919.7018181830 -1.28E-05
    38 OT DIIS     0.80E-01    7.9     0.00002276      -919.7018316740 -1.35E-05
    39 OT DIIS     0.80E-01    7.9     0.00002181      -919.7018447758 -1.31E-05
    40 OT DIIS     0.80E-01    7.9     0.00002102      -919.7018572269 -1.25E-05
    41 OT DIIS     0.80E-01    8.0     0.00002033      -919.7018693810 -1.22E-05
    42 OT DIIS     0.80E-01    7.9     0.00001966      -919.7018823912 -1.30E-05
    43 OT DIIS     0.80E-01    7.9     0.00001897      -919.7018974850 -1.51E-05
    44 OT DIIS     0.80E-01    7.9     0.00001829      -919.7019119085 -1.44E-05
    45 OT DIIS     0.80E-01    7.9     0.00001769      -919.7019257969 -1.39E-05
    46 OT DIIS     0.80E-01    7.9     0.00001699      -919.7019430480 -1.73E-05
    47 OT DIIS     0.80E-01    7.9     0.00001639      -919.7019582376 -1.52E-05
    48 OT DIIS     0.80E-01    7.9     0.00001579      -919.7019724906 -1.43E-05
    49 OT DIIS     0.80E-01    8.0     0.00001515      -919.7019895922 -1.71E-05
    50 OT DIIS     0.80E-01    7.9     0.00001450      -919.7020044694 -1.49E-05
    51 OT DIIS     0.80E-01    7.9     0.00001388      -919.7020195051 -1.50E-05
    52 OT DIIS     0.80E-01    7.9     0.00001326      -919.7020346241 -1.51E-05
    53 OT DIIS     0.80E-01    7.9     0.00001270      -919.7020464533 -1.18E-05
    54 OT DIIS     0.80E-01    7.9     0.00001213      -919.7020561844 -9.73E-06
    55 OT DIIS     0.80E-01    7.9     0.00001175      -919.7020683872 -1.22E-05
    56 OT DIIS     0.80E-01    7.9     0.00001116      -919.7020771504 -8.76E-06
    57 OT DIIS     0.80E-01    8.0     0.00001069      -919.7020869316 -9.78E-06
    58 OT DIIS     0.80E-01    7.9     0.00001003      -919.7020973397 -1.04E-05
    59 OT DIIS     0.80E-01    7.9     0.00000975      -919.7021058424 -8.50E-06

  *** SCF run converged in    59 steps ***


  Electronic density on regular grids:       -415.9999990657        0.0000009343
  Core density on regular grids:              415.9999999751       -0.0000000249
  Total charge density on r-space grids:        0.0000009094
  Total charge density g-space grids:           0.0000009094

  Overlap energy of the core charge distribution:               0.00000110849999
  Self energy of the core charge distribution:              -2388.37244906618980
  Core Hamiltonian energy:                                    712.06338038431875
  Hartree energy:                                             979.61104517531851
  Exchange-correlation energy:                               -223.00408344432398

  Total energy:                                              -919.70210584237657

 ENERGY| Total FORCE_EVAL ( QS ) energy [hartree]           -919.702111747122331

 Number of electrons:                                                        416
 Number of occupied orbitals:                                                208
 Number of molecular orbitals:                                               208

 Number of orbital functions:                                                318
 Number of independent orbital functions:                                    318

 Extrapolation method: ASPC


 SCF WAVEFUNCTION OPTIMIZATION

  ----------------------------------- OT ---------------------------------------
  Minimizer      : DIIS                : direct inversion
                                         in the iterative subspace
                                         using   7 DIIS vectors
                                         safer DIIS on
  Preconditioner : FULL_SINGLE_INVERSE : inversion of 
                                         H + eS - 2*(Sc)(c^T*H*c+const)(Sc)^T
  Precond_solver : DEFAULT
  stepsize       :    0.08000000                  energy_gap     :    0.08000000
  eps_taylor     :   0.10000E-15                  max_taylor     :             4
  ----------------------------------- OT ---------------------------------------

  Step     Update method      Time    Convergence         Total energy    Change
  ------------------------------------------------------------------------------
     1 OT DIIS     0.80E-01    6.6     0.00542438      -919.7930737628 -9.20E+02
     2 OT DIIS     0.80E-01    7.9     0.00369653      -919.8539667829 -6.09E-02
     3 OT DIIS     0.80E-01    7.9     0.00170293      -919.8728794072 -1.89E-02
     4 OT DIIS     0.80E-01    7.9     0.00079737      -919.8790903427 -6.21E-03
     5 OT DIIS     0.80E-01    7.9     0.00036783      -919.8807291163 -1.64E-03
     6 OT DIIS     0.80E-01    7.9     0.00017124      -919.8810766441 -3.48E-04
     7 OT DIIS     0.80E-01    7.9     0.00008612      -919.8811642219 -8.76E-05
     8 OT DIIS     0.80E-01    7.9     0.00004443      -919.8811909853 -2.68E-05
     9 OT DIIS     0.80E-01    7.9     0.00002374      -919.8811988370 -7.85E-06
    10 OT DIIS     0.80E-01    7.9     0.00001464      -919.8812010981 -2.26E-06
    11 OT DIIS     0.80E-01    7.9     0.00000804      -919.8812019833 -8.85E-07

  *** SCF run converged in    11 steps ***


  Electronic density on regular grids:       -415.9999990214        0.0000009786
  Core density on regular grids:              415.9999999754       -0.0000000246
  Total charge density on r-space grids:        0.0000009540
  Total charge density g-space grids:           0.0000009540

  Overlap energy of the core charge distribution:               0.00000095699220
  Self energy of the core charge distribution:              -2388.37244906618980
  Core Hamiltonian energy:                                    709.68856571781032
  Hartree energy:                                             981.15021275200763
  Exchange-correlation energy:                               -222.34753234388532

  Total energy:                                              -919.88120198326487

 ENERGY| Total FORCE_EVAL ( QS ) energy [hartree]           -919.881202289399539

 OPT| **************************************************************************
 OPT| Step number                                                              1
 OPT| Optimization method                                                  LBFGS
 OPT| Total energy [hartree]                                     -919.8812022894
 OPT| Effective energy change [hartree]                            -0.1790905423
 OPT| Decrease in energy                                                     YES
 OPT| Used time [s]                                                      574.674
 OPT|
 OPT| Maximum step size                                             0.1879955767
 OPT| Convergence limit for maximum step size                       0.0030000000
 OPT| Maximum step size is converged                                          NO
 OPT|
 OPT| RMS step size                                                 0.0589255651
 OPT| Convergence limit for RMS step size                           0.0015000000
 OPT| RMS step size is converged                                              NO
 OPT|
 OPT| Maximum gradient                                              0.1441571253
 OPT| Convergence limit for maximum gradient                        0.0010000000
 OPT| Maximum gradient is converged                                           NO
 OPT|
 OPT| RMS gradient                                                  0.0289063722
 OPT| Convergence limit for RMS gradient                            0.0003000000
 OPT| RMS gradient is converged                                               NO
 OPT| **************************************************************************
 OPT| Estimated peak process memory after this step [MiB]                   1872

 --------------------------
 OPTIMIZATION STEP:      2
 --------------------------

 Number of electrons:                                                        416
 Number of occupied orbitals:                                                208
 Number of molecular orbitals:                                               208

 Number of orbital functions:                                                318
 Number of independent orbital functions:                                    318

 Extrapolation method: ASPC


 SCF WAVEFUNCTION OPTIMIZATION

  ----------------------------------- OT ---------------------------------------
  Minimizer      : DIIS                : direct inversion
                                         in the iterative subspace
                                         using   7 DIIS vectors
                                         safer DIIS on
  Preconditioner : FULL_SINGLE_INVERSE : inversion of 
                                         H + eS - 2*(Sc)(c^T*H*c+const)(Sc)^T
  Precond_solver : DEFAULT
  stepsize       :    0.08000000                  energy_gap     :    0.08000000
  eps_taylor     :   0.10000E-15                  max_taylor     :             4
  ----------------------------------- OT ---------------------------------------

  Step     Update method      Time    Convergence         Total energy    Change
  ------------------------------------------------------------------------------
     1 OT DIIS     0.80E-01    6.5     0.00619870      -919.9086729041 -9.20E+02
     2 OT DIIS     0.80E-01    7.9     0.00502364      -919.9662338340 -5.76E-02
     3 OT DIIS     0.80E-01    7.9     0.00200354      -919.9971154641 -3.09E-02
     4 OT DIIS     0.80E-01    7.9     0.00116081      -920.0031089021 -5.99E-03
     5 OT DIIS     0.80E-01    7.9     0.00043794      -920.0057355064 -2.63E-03
     6 OT DIIS     0.80E-01    7.9     0.00019956      -920.0061992710 -4.64E-04
     7 OT DIIS     0.80E-01    7.9     0.00009947      -920.0063030753 -1.04E-04
     8 OT DIIS     0.80E-01    7.9     0.00005222      -920.0063353163 -3.22E-05
     9 OT DIIS     0.80E-01    7.9     0.00003661      -920.0063438606 -8.54E-06
    10 OT DIIS     0.80E-01    7.9     0.00001911      -920.0063469765 -3.12E-06
    11 OT DIIS     0.80E-01    7.9     0.00001103      -920.0063481264 -1.15E-06
    12 OT DIIS     0.80E-01    7.9     0.00000742      -920.0063485055 -3.79E-07

  *** SCF run converged in    12 steps ***


  Electronic density on regular grids:       -415.9999991423        0.0000008577
  Core density on regular grids:              415.9999999754       -0.0000000246
  Total charge density on r-space grids:        0.0000008331
  Total charge density g-space grids:           0.0000008331

  Overlap energy of the core charge distribution:               0.00000068443905
  Self energy of the core charge distribution:              -2388.37244906618980
  Core Hamiltonian energy:                                    708.35411727609551
  Hartree energy:                                             982.12020586949359
  Exchange-correlation energy:                               -222.10822326936247

  Total energy:                                              -920.00634850552422

 ENERGY| Total FORCE_EVAL ( QS ) energy [hartree]           -920.006348638611371

 OPT| **************************************************************************
 OPT| Step number                                                              2
 OPT| Optimization method                                                  LBFGS
 OPT| Total energy [hartree]                                     -920.0063486386
 OPT| Effective energy change [hartree]                            -0.1251463492
 OPT| Decrease in energy                                                     YES
 OPT| Used time [s]                                                      104.308
 OPT|
 OPT| Maximum step size                                             0.1148745290
 OPT| Convergence limit for maximum step size                       0.0030000000
 OPT| Maximum step size is converged                                          NO
 OPT|
 OPT| RMS step size                                                 0.0245900790
 OPT| Convergence limit for RMS step size                           0.0015000000
 OPT| RMS step size is converged                                              NO
 OPT|
 OPT| Maximum gradient                                              0.0507921676
 OPT| Convergence limit for maximum gradient                        0.0010000000
 OPT| Maximum gradient is converged                                           NO
 OPT|
 OPT| RMS gradient                                                  0.0167071044
 OPT| Convergence limit for RMS gradient                            0.0003000000
 OPT| RMS gradient is converged                                               NO
 OPT| **************************************************************************
 OPT| Estimated peak process memory after this step [MiB]                   1916

 --------------------------
 OPTIMIZATION STEP:      3
 --------------------------

 Number of electrons:                                                        416
 Number of occupied orbitals:                                                208
 Number of molecular orbitals:                                               208

 Number of orbital functions:                                                318
 Number of independent orbital functions:                                    318

 Extrapolation method: ASPC


 SCF WAVEFUNCTION OPTIMIZATION

  ----------------------------------- OT ---------------------------------------
  Minimizer      : DIIS                : direct inversion
                                         in the iterative subspace
                                         using   7 DIIS vectors
                                         safer DIIS on
  Preconditioner : FULL_SINGLE_INVERSE : inversion of 
                                         H + eS - 2*(Sc)(c^T*H*c+const)(Sc)^T
  Precond_solver : DEFAULT
  stepsize       :    0.08000000                  energy_gap     :    0.08000000
  eps_taylor     :   0.10000E-15                  max_taylor     :             4
  ----------------------------------- OT ---------------------------------------

  Step     Update method      Time    Convergence         Total energy    Change
  ------------------------------------------------------------------------------
     1 OT DIIS     0.80E-01    6.5     0.00342630      -920.0831990937 -9.20E+02
     2 OT DIIS     0.80E-01    7.9     0.00198038      -920.1103297488 -2.71E-02
     3 OT DIIS     0.80E-01    7.9     0.00086129      -920.1176983661 -7.37E-03
     4 OT DIIS     0.80E-01    7.9     0.00034928      -920.1205314048 -2.83E-03
     5 OT DIIS     0.80E-01    7.9     0.00015365      -920.1210510514 -5.20E-04
     6 OT DIIS     0.80E-01    7.9     0.00006987      -920.1211388380 -8.78E-05
     7 OT DIIS     0.80E-01    7.9     0.00003469      -920.1211606301 -2.18E-05
     8 OT DIIS     0.80E-01    7.9     0.00001671      -920.1211664618 -5.83E-06
     9 OT DIIS     0.80E-01    7.9     0.00000900      -920.1211678974 -1.44E-06

  *** SCF run converged in     9 steps ***


  Electronic density on regular grids:       -416.0000000301       -0.0000000301
  Core density on regular grids:              415.9999999754       -0.0000000246
  Total charge density on r-space grids:       -0.0000000547
  Total charge density g-space grids:          -0.0000000547

  Overlap energy of the core charge distribution:               0.00000052895478
  Self energy of the core charge distribution:              -2388.37244906618980
  Core Hamiltonian energy:                                    705.96690218557967
  Hartree energy:                                             983.87641954355252
  Exchange-correlation energy:                               -221.59204108930643

  Total energy:                                              -920.12116789740912

 ENERGY| Total FORCE_EVAL ( QS ) energy [hartree]           -920.121168348989386

 OPT| **************************************************************************
 OPT| Step number                                                              3
 OPT| Optimization method                                                  LBFGS
 OPT| Total energy [hartree]                                     -920.1211683490
 OPT| Effective energy change [hartree]                            -0.1148197104
 OPT| Decrease in energy                                                     YES
 OPT| Used time [s]                                                       80.629
 OPT|
 OPT| Maximum step size                                             0.1404314016
 OPT| Convergence limit for maximum step size                       0.0030000000
 OPT| Maximum step size is converged                                          NO
 OPT|
 OPT| RMS step size                                                 0.0432630453
 OPT| Convergence limit for RMS step size                           0.0015000000
 OPT| RMS step size is converged                                              NO
 OPT|
 OPT| Maximum gradient                                              0.0444893175
 OPT| Convergence limit for maximum gradient                        0.0010000000
 OPT| Maximum gradient is converged                                           NO
 OPT|
 OPT| RMS gradient                                                  0.0144873223
 OPT| Convergence limit for RMS gradient                            0.0003000000
 OPT| RMS gradient is converged                                               NO
 OPT| **************************************************************************
 OPT| Estimated peak process memory after this step [MiB]                   1921

 --------------------------
 OPTIMIZATION STEP:      4
 --------------------------

 Number of electrons:                                                        416
 Number of occupied orbitals:                                                208
 Number of molecular orbitals:                                               208

 Number of orbital functions:                                                318
 Number of independent orbital functions:                                    318

 Extrapolation method: ASPC


 SCF WAVEFUNCTION OPTIMIZATION

  ----------------------------------- OT ---------------------------------------
  Minimizer      : DIIS                : direct inversion
                                         in the iterative subspace
                                         using   7 DIIS vectors
                                         safer DIIS on
  Preconditioner : FULL_SINGLE_INVERSE : inversion of 
                                         H + eS - 2*(Sc)(c^T*H*c+const)(Sc)^T
  Precond_solver : DEFAULT
  stepsize       :    0.08000000                  energy_gap     :    0.08000000
  eps_taylor     :   0.10000E-15                  max_taylor     :             4
  ----------------------------------- OT ---------------------------------------

  Step     Update method      Time    Convergence         Total energy    Change
  ------------------------------------------------------------------------------
     1 OT DIIS     0.80E-01    6.5     0.00252981      -920.2205946214 -9.20E+02
     2 OT DIIS     0.80E-01    7.9     0.00171422      -920.2327840697 -1.22E-02
     3 OT DIIS     0.80E-01    7.9     0.00063974      -920.2372796155 -4.50E-03
     4 OT DIIS     0.80E-01    7.9     0.00028797      -920.2385522864 -1.27E-03
     5 OT DIIS     0.80E-01    7.9     0.00012866      -920.2388623697 -3.10E-04
     6 OT DIIS     0.80E-01    7.9     0.00005844      -920.2389162594 -5.39E-05
     7 OT DIIS     0.80E-01    7.9     0.00002840      -920.2389287750 -1.25E-05
     8 OT DIIS     0.80E-01    7.9     0.00001249      -920.2389320585 -3.28E-06
     9 OT DIIS     0.80E-01    7.9     0.00000624      -920.2389327290 -6.71E-07

  *** SCF run converged in     9 steps ***


  Electronic density on regular grids:       -415.9999997534        0.0000002466
  Core density on regular grids:              415.9999999755       -0.0000000245
  Total charge density on r-space grids:        0.0000002221
  Total charge density g-space grids:           0.0000002221

  Overlap energy of the core charge distribution:               0.00000029908100
  Self energy of the core charge distribution:              -2388.37244906618980
  Core Hamiltonian energy:                                    702.57990876884787
  Hartree energy:                                             986.32997676752757
  Exchange-correlation energy:                               -220.77636949823639

  Total energy:                                              -920.23893272896976

 ENERGY| Total FORCE_EVAL ( QS ) energy [hartree]           -920.238932897303016

 OPT| **************************************************************************
 OPT| Step number                                                              4
 OPT| Optimization method                                                  LBFGS
 OPT| Total energy [hartree]                                     -920.2389328973
 OPT| Effective energy change [hartree]                            -0.1177645483
 OPT| Decrease in energy                                                     YES
 OPT| Used time [s]                                                       80.540
 OPT|
 OPT| Maximum step size                                             0.2108937467
 OPT| Convergence limit for maximum step size                       0.0030000000
 OPT| Maximum step size is converged                                          NO
 OPT|
 OPT| RMS step size                                                 0.0620061060
 OPT| Convergence limit for RMS step size                           0.0015000000
 OPT| RMS step size is converged                                              NO
 OPT|
 OPT| Maximum gradient                                              0.0495962636
 OPT| Convergence limit for maximum gradient                        0.0010000000
 OPT| Maximum gradient is converged                                           NO
 OPT|
 OPT| RMS gradient                                                  0.0138712556
 OPT| Convergence limit for RMS gradient                            0.0003000000
 OPT| RMS gradient is converged                                               NO
 OPT| **************************************************************************
 OPT| Estimated peak process memory after this step [MiB]                   1935

 --------------------------
 OPTIMIZATION STEP:      5
 --------------------------

 Number of electrons:                                                        416
 Number of occupied orbitals:                                                208
 Number of molecular orbitals:                                               208

 Number of orbital functions:                                                318
 Number of independent orbital functions:                                    318

 Extrapolation method: ASPC


 SCF WAVEFUNCTION OPTIMIZATION

  ----------------------------------- OT ---------------------------------------
  Minimizer      : DIIS                : direct inversion
                                         in the iterative subspace
                                         using   7 DIIS vectors
                                         safer DIIS on
  Preconditioner : FULL_SINGLE_INVERSE : inversion of 
                                         H + eS - 2*(Sc)(c^T*H*c+const)(Sc)^T
  Precond_solver : DEFAULT
  stepsize       :    0.08000000                  energy_gap     :    0.08000000
  eps_taylor     :   0.10000E-15                  max_taylor     :             4
  ----------------------------------- OT ---------------------------------------

  Step     Update method      Time    Convergence         Total energy    Change
  ------------------------------------------------------------------------------
     1 OT DIIS     0.80E-01    6.5     0.00340134      -920.2779548069 -9.20E+02
     2 OT DIIS     0.80E-01    7.8     0.00225117      -920.3067393547 -2.88E-02
     3 OT DIIS     0.80E-01    7.8     0.00115338      -920.3154584632 -8.72E-03
     4 OT DIIS     0.80E-01    7.9     0.00052295      -920.3198688017 -4.41E-03
     5 OT DIIS     0.80E-01    7.9     0.00025144      -920.3207329141 -8.64E-04
     6 OT DIIS     0.80E-01    7.9     0.00012311      -920.3209179446 -1.85E-04
     7 OT DIIS     0.80E-01    7.9     0.00005814      -920.3209671132 -4.92E-05
     8 OT DIIS     0.80E-01    7.8     0.00002634      -920.3209795214 -1.24E-05
     9 OT DIIS     0.80E-01    7.9     0.00001415      -920.3209823020 -2.78E-06
    10 OT DIIS     0.80E-01    7.9     0.00000852      -920.3209831038 -8.02E-07

  *** SCF run converged in    10 steps ***


  Electronic density on regular grids:       -415.9999996832        0.0000003168
  Core density on regular grids:              415.9999999752       -0.0000000248
  Total charge density on r-space grids:        0.0000002920
  Total charge density g-space grids:           0.0000002920

  Overlap energy of the core charge distribution:               0.00000014597819
  Self energy of the core charge distribution:              -2388.37244906618980
  Core Hamiltonian energy:                                    697.48653416310731
  Hartree energy:                                             990.05502075969173
  Exchange-correlation energy:                               -219.49008910637448

  Total energy:                                              -920.32098310378728

 ENERGY| Total FORCE_EVAL ( QS ) energy [hartree]           -920.320983357447517

 OPT| **************************************************************************
 OPT| Step number                                                              5
 OPT| Optimization method                                                  LBFGS
 OPT| Total energy [hartree]                                     -920.3209833574
 OPT| Effective energy change [hartree]                            -0.0820504601
 OPT| Decrease in energy                                                     YES
 OPT| Used time [s]                                                       88.170
 OPT|
 OPT| Maximum step size                                             0.4103463054
 OPT| Convergence limit for maximum step size                       0.0030000000
 OPT| Maximum step size is converged                                          NO
 OPT|
 OPT| RMS step size                                                 0.1170733104
 OPT| Convergence limit for RMS step size                           0.0015000000
 OPT| RMS step size is converged                                              NO
 OPT|
 OPT| Maximum gradient                                              0.0583679615
 OPT| Convergence limit for maximum gradient                        0.0010000000
 OPT| Maximum gradient is converged                                           NO
 OPT|
 OPT| RMS gradient                                                  0.0159682788
 OPT| Convergence limit for RMS gradient                            0.0003000000
 OPT| RMS gradient is converged                                               NO
 OPT| **************************************************************************
 OPT| Estimated peak process memory after this step [MiB]                   1943

 --------------------------
 OPTIMIZATION STEP:      6
 --------------------------

 Number of electrons:                                                        416
 Number of occupied orbitals:                                                208
 Number of molecular orbitals:                                               208

 Number of orbital functions:                                                318
 Number of independent orbital functions:                                    318

 Extrapolation method: ASPC


 SCF WAVEFUNCTION OPTIMIZATION

  ----------------------------------- OT ---------------------------------------
  Minimizer      : DIIS                : direct inversion
                                         in the iterative subspace
                                         using   7 DIIS vectors
                                         safer DIIS on
  Preconditioner : FULL_SINGLE_INVERSE : inversion of 
                                         H + eS - 2*(Sc)(c^T*H*c+const)(Sc)^T
  Precond_solver : DEFAULT
  stepsize       :    0.08000000                  energy_gap     :    0.08000000
  eps_taylor     :   0.10000E-15                  max_taylor     :             4
  ----------------------------------- OT ---------------------------------------

  Step     Update method      Time    Convergence         Total energy    Change
  ------------------------------------------------------------------------------
     1 OT DIIS     0.80E-01    6.5     0.00895237      -920.0958471156 -9.20E+02
     2 OT DIIS     0.80E-01    7.9     0.00553778      -920.2999885473 -2.04E-01
     3 OT DIIS     0.80E-01    7.9     0.00345648      -920.3504805408 -5.05E-02
     4 OT DIIS     0.80E-01    7.9     0.00209016      -920.3744150117 -2.39E-02
     5 OT DIIS     0.80E-01    7.9     0.00074402      -920.3831993421 -8.78E-03
     6 OT DIIS     0.80E-01    7.9     0.00038498      -920.3846074372 -1.41E-03
     7 OT DIIS     0.80E-01    7.9     0.00019618      -920.3849279391 -3.21E-04
     8 OT DIIS     0.80E-01    7.9     0.00010951      -920.3850175108 -8.96E-05
     9 OT DIIS     0.80E-01    7.9     0.00005385      -920.3850468811 -2.94E-05
    10 OT DIIS     0.80E-01    7.9     0.00003053      -920.3850543730 -7.49E-06
    11 OT DIIS     0.80E-01    7.9     0.00001757      -920.3850565730 -2.20E-06
    12 OT DIIS     0.80E-01    7.9     0.00001099      -920.3850573182 -7.45E-07
    13 OT DIIS     0.80E-01    7.9     0.00000736      -920.3850575561 -2.38E-07

  *** SCF run converged in    13 steps ***


  Electronic density on regular grids:       -415.9999995017        0.0000004983
  Core density on regular grids:              415.9999999751       -0.0000000249
  Total charge density on r-space grids:        0.0000004734
  Total charge density g-space grids:           0.0000004734

  Overlap energy of the core charge distribution:               0.00000013647754
  Self energy of the core charge distribution:              -2388.37244906618980
  Core Hamiltonian energy:                                    697.51124024577939
  Hartree energy:                                             989.99302294260860
  Exchange-correlation energy:                               -219.51687181480381

  Total energy:                                              -920.38505755612823

 ENERGY| Total FORCE_EVAL ( QS ) energy [hartree]           -920.385057658294841

 OPT| **************************************************************************
 OPT| Step number                                                              6
 OPT| Optimization method                                                  LBFGS
 OPT| Total energy [hartree]                                     -920.3850576583
 OPT| Effective energy change [hartree]                            -0.0640743008
 OPT| Decrease in energy                                                     YES
 OPT| Used time [s]                                                      111.961
 OPT|
 OPT| Maximum step size                                             0.1089191925
 OPT| Convergence limit for maximum step size                       0.0030000000
 OPT| Maximum step size is converged                                          NO
 OPT|
 OPT| RMS step size                                                 0.0289510056
 OPT| Convergence limit for RMS step size                           0.0015000000
 OPT| RMS step size is converged                                              NO
 OPT|
 OPT| Maximum gradient                                              0.0381777468
 OPT| Convergence limit for maximum gradient                        0.0010000000
 OPT| Maximum gradient is converged                                           NO
 OPT|
 OPT| RMS gradient                                                  0.0094623934
 OPT| Convergence limit for RMS gradient                            0.0003000000
 OPT| RMS gradient is converged                                               NO
 OPT| **************************************************************************
 OPT| Estimated peak process memory after this step [MiB]                   1958

 --------------------------
 OPTIMIZATION STEP:      7
 --------------------------

 Number of electrons:                                                        416
 Number of occupied orbitals:                                                208
 Number of molecular orbitals:                                               208

 Number of orbital functions:                                                318
 Number of independent orbital functions:                                    318

 Extrapolation method: ASPC


 SCF WAVEFUNCTION OPTIMIZATION

  ----------------------------------- OT ---------------------------------------
  Minimizer      : DIIS                : direct inversion
                                         in the iterative subspace
                                         using   7 DIIS vectors
                                         safer DIIS on
  Preconditioner : FULL_SINGLE_INVERSE : inversion of 
                                         H + eS - 2*(Sc)(c^T*H*c+const)(Sc)^T
  Precond_solver : DEFAULT
  stepsize       :    0.08000000                  energy_gap     :    0.08000000
  eps_taylor     :   0.10000E-15                  max_taylor     :             4
  ----------------------------------- OT ---------------------------------------

  Step     Update method      Time    Convergence         Total energy    Change
  ------------------------------------------------------------------------------
     1 OT DIIS     0.80E-01    6.5     0.00697422      -920.2055348267 -9.20E+02
     2 OT DIIS     0.80E-01    7.9     0.00382261      -920.3575222399 -1.52E-01
     3 OT DIIS     0.80E-01    7.9     0.00256945      -920.3922855770 -3.48E-02
     4 OT DIIS     0.80E-01    7.9     0.00108570      -920.4114114220 -1.91E-02
     5 OT DIIS     0.80E-01    7.9     0.00043997      -920.4148986534 -3.49E-03
     6 OT DIIS     0.80E-01    7.9     0.00021785      -920.4155353252 -6.37E-04
     7 OT DIIS     0.80E-01    7.9     0.00010814      -920.4156915052 -1.56E-04
     8 OT DIIS     0.80E-01    7.9     0.00005024      -920.4157334455 -4.19E-05
     9 OT DIIS     0.80E-01    7.9     0.00002819      -920.4157434334 -9.99E-06
    10 OT DIIS     0.80E-01    7.9     0.00001393      -920.4157467037 -3.27E-06
    11 OT DIIS     0.80E-01    7.9     0.00000767      -920.4157474969 -7.93E-07

  *** SCF run converged in    11 steps ***


  Electronic density on regular grids:       -415.9999990049        0.0000009951
  Core density on regular grids:              415.9999999751       -0.0000000249
  Total charge density on r-space grids:        0.0000009703
  Total charge density g-space grids:           0.0000009703

  Overlap energy of the core charge distribution:               0.00000014558730
  Self energy of the core charge distribution:              -2388.37244906618980
  Core Hamiltonian energy:                                    697.96216878289385
  Hartree energy:                                             989.62628161709301
  Exchange-correlation energy:                               -219.63174897631521

  Total energy:                                              -920.41574749693063

 ENERGY| Total FORCE_EVAL ( QS ) energy [hartree]           -920.415747708382469

 OPT| **************************************************************************
 OPT| Step number                                                              7
 OPT| Optimization method                                                  LBFGS
 OPT| Total energy [hartree]                                     -920.4157477084
 OPT| Effective energy change [hartree]                            -0.0306900501
 OPT| Decrease in energy                                                     YES
 OPT| Used time [s]                                                       96.198
 OPT|
 OPT| Maximum step size                                             0.0576581397
 OPT| Convergence limit for maximum step size                       0.0030000000
 OPT| Maximum step size is converged                                          NO
 OPT|
 OPT| RMS step size                                                 0.0189500032
 OPT| Convergence limit for RMS step size                           0.0015000000
 OPT| RMS step size is converged                                              NO
 OPT|
 OPT| Maximum gradient                                              0.0391127027
 OPT| Convergence limit for maximum gradient                        0.0010000000
 OPT| Maximum gradient is converged                                           NO
 OPT|
 OPT| RMS gradient                                                  0.0078713524
 OPT| Convergence limit for RMS gradient                            0.0003000000
 OPT| RMS gradient is converged                                               NO
 OPT| **************************************************************************
 OPT| Estimated peak process memory after this step [MiB]                   1964

 --------------------------
 OPTIMIZATION STEP:      8
 --------------------------

 Number of electrons:                                                        416
 Number of occupied orbitals:                                                208
 Number of molecular orbitals:                                               208

 Number of orbital functions:                                                318
 Number of independent orbital functions:                                    318

 Extrapolation method: ASPC


 SCF WAVEFUNCTION OPTIMIZATION

  ----------------------------------- OT ---------------------------------------
  Minimizer      : DIIS                : direct inversion
                                         in the iterative subspace
                                         using   7 DIIS vectors
                                         safer DIIS on
  Preconditioner : FULL_SINGLE_INVERSE : inversion of 
                                         H + eS - 2*(Sc)(c^T*H*c+const)(Sc)^T
  Precond_solver : DEFAULT
  stepsize       :    0.08000000                  energy_gap     :    0.08000000
  eps_taylor     :   0.10000E-15                  max_taylor     :             4
  ----------------------------------- OT ---------------------------------------

  Step     Update method      Time    Convergence         Total energy    Change
  ------------------------------------------------------------------------------
     1 OT DIIS     0.80E-01    6.5     0.00342426      -920.4049991028 -9.20E+02
     2 OT DIIS     0.80E-01    7.8     0.00198426      -920.4372657951 -3.23E-02
     3 OT DIIS     0.80E-01    7.9     0.00134321      -920.4439273732 -6.66E-03
     4 OT DIIS     0.80E-01    7.8     0.00059371      -920.4477429269 -3.82E-03
     5 OT DIIS     0.80E-01    7.9     0.00025696      -920.4486927201 -9.50E-04
     6 OT DIIS     0.80E-01    7.9     0.00013378      -920.4488823772 -1.90E-04
     7 OT DIIS     0.80E-01    7.8     0.00006327      -920.4489315011 -4.91E-05
     8 OT DIIS     0.80E-01    7.8     0.00003378      -920.4489436102 -1.21E-05
     9 OT DIIS     0.80E-01    7.8     0.00001562      -920.4489468679 -3.26E-06
    10 OT DIIS     0.80E-01    7.8     0.00000843      -920.4489476620 -7.94E-07

  *** SCF run converged in    10 steps ***


  Electronic density on regular grids:       -415.9999992162        0.0000007838
  Core density on regular grids:              415.9999999750       -0.0000000250
  Total charge density on r-space grids:        0.0000007587
  Total charge density g-space grids:           0.0000007587

  Overlap energy of the core charge distribution:               0.00000014381995
  Self energy of the core charge distribution:              -2388.37244906618980
  Core Hamiltonian energy:                                    698.06894236034884
  Hartree energy:                                             989.48373204000154
  Exchange-correlation energy:                               -219.62917313995575

  Total energy:                                              -920.44894766197535

 ENERGY| Total FORCE_EVAL ( QS ) energy [hartree]           -920.448947890383579

 OPT| **************************************************************************
 OPT| Step number                                                              8
 OPT| Optimization method                                                  LBFGS
 OPT| Total energy [hartree]                                     -920.4489478904
 OPT| Effective energy change [hartree]                            -0.0332001820
 OPT| Decrease in energy                                                     YES
 OPT| Used time [s]                                                       87.963
 OPT|
 OPT| Maximum step size                                             0.1580860112
 OPT| Convergence limit for maximum step size                       0.0030000000
 OPT| Maximum step size is converged                                          NO
 OPT|
 OPT| RMS step size                                                 0.0501040272
 OPT| Convergence limit for RMS step size                           0.0015000000
 OPT| RMS step size is converged                                              NO
 OPT|
 OPT| Maximum gradient                                              0.0337328568
 OPT| Convergence limit for maximum gradient                        0.0010000000
 OPT| Maximum gradient is converged                                           NO
 OPT|
 OPT| RMS gradient                                                  0.0091068987
 OPT| Convergence limit for RMS gradient                            0.0003000000
 OPT| RMS gradient is converged                                               NO
 OPT| **************************************************************************
 OPT| Estimated peak process memory after this step [MiB]                   1973

 --------------------------
 OPTIMIZATION STEP:      9
 --------------------------

 Number of electrons:                                                        416
 Number of occupied orbitals:                                                208
 Number of molecular orbitals:                                               208

 Number of orbital functions:                                                318
 Number of independent orbital functions:                                    318

 Extrapolation method: ASPC


 SCF WAVEFUNCTION OPTIMIZATION

  ----------------------------------- OT ---------------------------------------
  Minimizer      : DIIS                : direct inversion
                                         in the iterative subspace
                                         using   7 DIIS vectors
                                         safer DIIS on
  Preconditioner : FULL_SINGLE_INVERSE : inversion of 
                                         H + eS - 2*(Sc)(c^T*H*c+const)(Sc)^T
  Precond_solver : DEFAULT
  stepsize       :    0.08000000                  energy_gap     :    0.08000000
  eps_taylor     :   0.10000E-15                  max_taylor     :             4
  ----------------------------------- OT ---------------------------------------

  Step     Update method      Time    Convergence         Total energy    Change
  ------------------------------------------------------------------------------
     1 OT DIIS     0.80E-01    6.5     0.00356442      -920.4118949399 -9.20E+02
     2 OT DIIS     0.80E-01    7.9     0.00204197      -920.4522426064 -4.03E-02
     3 OT DIIS     0.80E-01    7.8     0.00136098      -920.4625014424 -1.03E-02
     4 OT DIIS     0.80E-01    7.8     0.00051227      -920.4688155587 -6.31E-03
     5 OT DIIS     0.80E-01    7.9     0.00023627      -920.4698233282 -1.01E-03
     6 OT DIIS     0.80E-01    7.9     0.00011957      -920.4700191209 -1.96E-04
     7 OT DIIS     0.80E-01    7.8     0.00005514      -920.4700752324 -5.61E-05
     8 OT DIIS     0.80E-01    7.8     0.00002763      -920.4700868179 -1.16E-05
     9 OT DIIS     0.80E-01    7.9     0.00001366      -920.4700893695 -2.55E-06
    10 OT DIIS     0.80E-01    7.9     0.00000731      -920.4700901171 -7.48E-07

  *** SCF run converged in    10 steps ***


  Electronic density on regular grids:       -415.9999987955        0.0000012045
  Core density on regular grids:              415.9999999753       -0.0000000247
  Total charge density on r-space grids:        0.0000011797
  Total charge density g-space grids:           0.0000011797

  Overlap energy of the core charge distribution:               0.00000015456239
  Self energy of the core charge distribution:              -2388.37244906618980
  Core Hamiltonian energy:                                    698.04173784742898
  Hartree energy:                                             989.50497390564908
  Exchange-correlation energy:                               -219.64435295852778

  Total energy:                                              -920.47009011707723

 ENERGY| Total FORCE_EVAL ( QS ) energy [hartree]           -920.470090313102219

 OPT| **************************************************************************
 OPT| Step number                                                              9
 OPT| Optimization method                                                  LBFGS
 OPT| Total energy [hartree]                                     -920.4700903131
 OPT| Effective energy change [hartree]                            -0.0211424227
 OPT| Decrease in energy                                                     YES
 OPT| Used time [s]                                                       87.968
 OPT|
 OPT| Maximum step size                                             0.0923437644
 OPT| Convergence limit for maximum step size                       0.0030000000
 OPT| Maximum step size is converged                                          NO
 OPT|
 OPT| RMS step size                                                 0.0253611353
 OPT| Convergence limit for RMS step size                           0.0015000000
 OPT| RMS step size is converged                                              NO
 OPT|
 OPT| Maximum gradient                                              0.0340618844
 OPT| Convergence limit for maximum gradient                        0.0010000000
 OPT| Maximum gradient is converged                                           NO
 OPT|
 OPT| RMS gradient                                                  0.0074460494
 OPT| Convergence limit for RMS gradient                            0.0003000000
 OPT| RMS gradient is converged                                               NO
 OPT| **************************************************************************
 OPT| Estimated peak process memory after this step [MiB]                   1975

 --------------------------
 OPTIMIZATION STEP:     10
 --------------------------

 Number of electrons:                                                        416
 Number of occupied orbitals:                                                208
 Number of molecular orbitals:                                               208

 Number of orbital functions:                                                318
 Number of independent orbital functions:                                    318

 Extrapolation method: ASPC


 SCF WAVEFUNCTION OPTIMIZATION

  ----------------------------------- OT ---------------------------------------
  Minimizer      : DIIS                : direct inversion
                                         in the iterative subspace
                                         using   7 DIIS vectors
                                         safer DIIS on
  Preconditioner : FULL_SINGLE_INVERSE : inversion of 
                                         H + eS - 2*(Sc)(c^T*H*c+const)(Sc)^T
  Precond_solver : DEFAULT
  stepsize       :    0.08000000                  energy_gap     :    0.08000000
  eps_taylor     :   0.10000E-15                  max_taylor     :             4
  ----------------------------------- OT ---------------------------------------

  Step     Update method      Time    Convergence         Total energy    Change
  ------------------------------------------------------------------------------
     1 OT DIIS     0.80E-01    6.5     0.00255532      -920.4617200885 -9.20E+02
     2 OT DIIS     0.80E-01    7.8     0.00174313      -920.4778479668 -1.61E-02
     3 OT DIIS     0.80E-01    7.8     0.00091173      -920.4827615141 -4.91E-03
     4 OT DIIS     0.80E-01    7.8     0.00040901      -920.4852769589 -2.52E-03
     5 OT DIIS     0.80E-01    7.8     0.00019130      -920.4858023651 -5.25E-04
     6 OT DIIS     0.80E-01    7.8     0.00009406      -920.4859156755 -1.13E-04
     7 OT DIIS     0.80E-01    7.9     0.00004727      -920.4859462998 -3.06E-05
     8 OT DIIS     0.80E-01    7.8     0.00002347      -920.4859534209 -7.12E-06
     9 OT DIIS     0.80E-01    7.8     0.00001123      -920.4859552191 -1.80E-06
    10 OT DIIS     0.80E-01    7.8     0.00000623      -920.4859556472 -4.28E-07

  *** SCF run converged in    10 steps ***


  Electronic density on regular grids:       -415.9999987246        0.0000012754
  Core density on regular grids:              415.9999999752       -0.0000000248
  Total charge density on r-space grids:        0.0000012506
  Total charge density g-space grids:           0.0000012506

  Overlap energy of the core charge distribution:               0.00000014157776
  Self energy of the core charge distribution:              -2388.37244906618980
  Core Hamiltonian energy:                                    697.76829276306080
  Hartree energy:                                             989.70674302784505
  Exchange-correlation energy:                               -219.58854251352693

  Total energy:                                              -920.48595564723303

 ENERGY| Total FORCE_EVAL ( QS ) energy [hartree]           -920.485955772689067

 OPT| **************************************************************************
 OPT| Step number                                                             10
 OPT| Optimization method                                                  LBFGS
 OPT| Total energy [hartree]                                     -920.4859557727
 OPT| Effective energy change [hartree]                            -0.0158654596
 OPT| Decrease in energy                                                     YES
 OPT| Used time [s]                                                       87.891
 OPT|
 OPT| Maximum step size                                             0.0560624257
 OPT| Convergence limit for maximum step size                       0.0030000000
 OPT| Maximum step size is converged                                          NO
 OPT|
 OPT| RMS step size                                                 0.0148050399
 OPT| Convergence limit for RMS step size                           0.0015000000
 OPT| RMS step size is converged                                              NO
 OPT|
 OPT| Maximum gradient                                              0.0202645340
 OPT| Convergence limit for maximum gradient                        0.0010000000
 OPT| Maximum gradient is converged                                           NO
 OPT|
 OPT| RMS gradient                                                  0.0057385884
 OPT| Convergence limit for RMS gradient                            0.0003000000
 OPT| RMS gradient is converged                                               NO
 OPT| **************************************************************************
 OPT| Estimated peak process memory after this step [MiB]                   1978

 --------------------------
 OPTIMIZATION STEP:     11
 --------------------------

 Number of electrons:                                                        416
 Number of occupied orbitals:                                                208
 Number of molecular orbitals:                                               208

 Number of orbital functions:                                                318
 Number of independent orbital functions:                                    318

 Extrapolation method: ASPC


 SCF WAVEFUNCTION OPTIMIZATION

  ----------------------------------- OT ---------------------------------------
  Minimizer      : DIIS                : direct inversion
                                         in the iterative subspace
                                         using   7 DIIS vectors
                                         safer DIIS on
  Preconditioner : FULL_SINGLE_INVERSE : inversion of 
                                         H + eS - 2*(Sc)(c^T*H*c+const)(Sc)^T
  Precond_solver : DEFAULT
  stepsize       :    0.08000000                  energy_gap     :    0.08000000
  eps_taylor     :   0.10000E-15                  max_taylor     :             4
  ----------------------------------- OT ---------------------------------------

  Step     Update method      Time    Convergence         Total energy    Change
  ------------------------------------------------------------------------------
     1 OT DIIS     0.80E-01    6.5     0.00199606      -920.4920632527 -9.20E+02
     2 OT DIIS     0.80E-01    7.8     0.00120780      -920.5043471043 -1.23E-02
     3 OT DIIS     0.80E-01    7.9     0.00077796      -920.5077133006 -3.37E-03
     4 OT DIIS     0.80E-01    7.8     0.00031898      -920.5099368321 -2.22E-03
     5 OT DIIS     0.80E-01    7.8     0.00014396      -920.5103037099 -3.67E-04
     6 OT DIIS     0.80E-01    7.8     0.00007017      -920.5103730303 -6.93E-05
     7 OT DIIS     0.80E-01    7.8     0.00003406      -920.5103915546 -1.85E-05
     8 OT DIIS     0.80E-01    7.8     0.00001536      -920.5103955323 -3.98E-06
     9 OT DIIS     0.80E-01    7.9     0.00000751      -920.5103963431 -8.11E-07

  *** SCF run converged in     9 steps ***


  Electronic density on regular grids:       -415.9999987823        0.0000012177
  Core density on regular grids:              415.9999999749       -0.0000000251
  Total charge density on r-space grids:        0.0000011926
  Total charge density g-space grids:           0.0000011926

  Overlap energy of the core charge distribution:               0.00000012026267
  Self energy of the core charge distribution:              -2388.37244906618980
  Core Hamiltonian energy:                                    696.77041970830624
  Hartree energy:                                             990.43165722237222
  Exchange-correlation energy:                               -219.34002432783680

  Total energy:                                              -920.51039634308563

 ENERGY| Total FORCE_EVAL ( QS ) energy [hartree]           -920.510396564449820

 OPT| **************************************************************************
 OPT| Step number                                                             11
 OPT| Optimization method                                                  LBFGS
 OPT| Total energy [hartree]                                     -920.5103965644
 OPT| Effective energy change [hartree]                            -0.0244407918
 OPT| Decrease in energy                                                     YES
 OPT| Used time [s]                                                       80.006
 OPT|
 OPT| Maximum step size                                             0.2069447017
 OPT| Convergence limit for maximum step size                       0.0030000000
 OPT| Maximum step size is converged                                          NO
 OPT|
 OPT| RMS step size                                                 0.0489384484
 OPT| Convergence limit for RMS step size                           0.0015000000
 OPT| RMS step size is converged                                              NO
 OPT|
 OPT| Maximum gradient                                              0.0263855129
 OPT| Convergence limit for maximum gradient                        0.0010000000
 OPT| Maximum gradient is converged                                           NO
 OPT|
 OPT| RMS gradient                                                  0.0056849765
 OPT| Convergence limit for RMS gradient                            0.0003000000
 OPT| RMS gradient is converged                                               NO
 OPT| **************************************************************************
 OPT| Estimated peak process memory after this step [MiB]                   1980

 --------------------------
 OPTIMIZATION STEP:     12
 --------------------------

 Number of electrons:                                                        416
 Number of occupied orbitals:                                                208
 Number of molecular orbitals:                                               208

 Number of orbital functions:                                                318
 Number of independent orbital functions:                                    318

 Extrapolation method: ASPC


 SCF WAVEFUNCTION OPTIMIZATION

  ----------------------------------- OT ---------------------------------------
  Minimizer      : DIIS                : direct inversion
                                         in the iterative subspace
                                         using   7 DIIS vectors
                                         safer DIIS on
  Preconditioner : FULL_SINGLE_INVERSE : inversion of 
                                         H + eS - 2*(Sc)(c^T*H*c+const)(Sc)^T
  Precond_solver : DEFAULT
  stepsize       :    0.08000000                  energy_gap     :    0.08000000
  eps_taylor     :   0.10000E-15                  max_taylor     :             4
  ----------------------------------- OT ---------------------------------------

  Step     Update method      Time    Convergence         Total energy    Change
  ------------------------------------------------------------------------------
     1 OT DIIS     0.80E-01    6.5     0.00336078      -920.4655282023 -9.20E+02
     2 OT DIIS     0.80E-01    7.8     0.00191268      -920.5034135651 -3.79E-02
     3 OT DIIS     0.80E-01    7.8     0.00124851      -920.5145990816 -1.12E-02
     4 OT DIIS     0.80E-01    7.8     0.00046320      -920.5213795680 -6.78E-03
     5 OT DIIS     0.80E-01    7.8     0.00019653      -920.5222716069 -8.92E-04
     6 OT DIIS     0.80E-01    7.8     0.00009806      -920.5224075006 -1.36E-04
     7 OT DIIS     0.80E-01    7.8     0.00004184      -920.5224468747 -3.94E-05
     8 OT DIIS     0.80E-01    7.8     0.00001896      -920.5224543490 -7.47E-06
     9 OT DIIS     0.80E-01    7.9     0.00000939      -920.5224558200 -1.47E-06

  *** SCF run converged in     9 steps ***


  Electronic density on regular grids:       -415.9999997269        0.0000002731
  Core density on regular grids:              415.9999999752       -0.0000000248
  Total charge density on r-space grids:        0.0000002483
  Total charge density g-space grids:           0.0000002483

  Overlap energy of the core charge distribution:               0.00000012869938
  Self energy of the core charge distribution:              -2388.37244906618980
  Core Hamiltonian energy:                                    696.33739799073555
  Hartree energy:                                             990.75716834020261
  Exchange-correlation energy:                               -219.24457321344016

  Total energy:                                              -920.52245581999239

 ENERGY| Total FORCE_EVAL ( QS ) energy [hartree]           -920.522456220633558

 OPT| **************************************************************************
 OPT| Step number                                                             12
 OPT| Optimization method                                                  LBFGS
 OPT| Total energy [hartree]                                     -920.5224562206
 OPT| Effective energy change [hartree]                            -0.0120596562
 OPT| Decrease in energy                                                     YES
 OPT| Used time [s]                                                       80.022
 OPT|
 OPT| Maximum step size                                             0.1004844769
 OPT| Convergence limit for maximum step size                       0.0030000000
 OPT| Maximum step size is converged                                          NO
 OPT|
 OPT| RMS step size                                                 0.0287093093
 OPT| Convergence limit for RMS step size                           0.0015000000
 OPT| RMS step size is converged                                              NO
 OPT|
 OPT| Maximum gradient                                              0.0288225499
 OPT| Convergence limit for maximum gradient                        0.0010000000
 OPT| Maximum gradient is converged                                           NO
 OPT|
 OPT| RMS gradient                                                  0.0062838917
 OPT| Convergence limit for RMS gradient                            0.0003000000
 OPT| RMS gradient is converged                                               NO
 OPT| **************************************************************************
 OPT| Estimated peak process memory after this step [MiB]                   1980

 --------------------------
 OPTIMIZATION STEP:     13
 --------------------------

 Number of electrons:                                                        416
 Number of occupied orbitals:                                                208
 Number of molecular orbitals:                                               208

 Number of orbital functions:                                                318
 Number of independent orbital functions:                                    318

 Extrapolation method: ASPC


 SCF WAVEFUNCTION OPTIMIZATION

  ----------------------------------- OT ---------------------------------------
  Minimizer      : DIIS                : direct inversion
                                         in the iterative subspace
                                         using   7 DIIS vectors
                                         safer DIIS on
  Preconditioner : FULL_SINGLE_INVERSE : inversion of 
                                         H + eS - 2*(Sc)(c^T*H*c+const)(Sc)^T
  Precond_solver : DEFAULT
  stepsize       :    0.08000000                  energy_gap     :    0.08000000
  eps_taylor     :   0.10000E-15                  max_taylor     :             4
  ----------------------------------- OT ---------------------------------------

  Step     Update method      Time    Convergence         Total energy    Change
  ------------------------------------------------------------------------------
     1 OT DIIS     0.80E-01    6.5     0.00297644      -920.4945059460 -9.20E+02
     2 OT DIIS     0.80E-01    7.8     0.00179697      -920.5211746983 -2.67E-02
     3 OT DIIS     0.80E-01    7.9     0.00118521      -920.5280174616 -6.84E-03
     4 OT DIIS     0.80E-01    7.8     0.00053088      -920.5323175268 -4.30E-03
     5 OT DIIS     0.80E-01    7.8     0.00022732      -920.5331577925 -8.40E-04
     6 OT DIIS     0.80E-01    7.9     0.00010731      -920.5333066823 -1.49E-04
     7 OT DIIS     0.80E-01    7.8     0.00005011      -920.5333453159 -3.86E-05
     8 OT DIIS     0.80E-01    7.8     0.00002251      -920.5333531988 -7.88E-06
     9 OT DIIS     0.80E-01    7.8     0.00001067      -920.5333549731 -1.77E-06
    10 OT DIIS     0.80E-01    7.8     0.00000592      -920.5333554250 -4.52E-07

  *** SCF run converged in    10 steps ***


  Electronic density on regular grids:       -415.9999996634        0.0000003366
  Core density on regular grids:              415.9999999753       -0.0000000247
  Total charge density on r-space grids:        0.0000003119
  Total charge density g-space grids:           0.0000003119

  Overlap energy of the core charge distribution:               0.00000011150777
  Self energy of the core charge distribution:              -2388.37244906618980
  Core Hamiltonian energy:                                    696.11041469397958
  Hartree energy:                                             990.90990399697307
  Exchange-correlation energy:                               -219.18122516123256

  Total energy:                                              -920.53335542496188

 ENERGY| Total FORCE_EVAL ( QS ) energy [hartree]           -920.533355543456992

 OPT| **************************************************************************
 OPT| Step number                                                             13
 OPT| Optimization method                                                  LBFGS
 OPT| Total energy [hartree]                                     -920.5333555435
 OPT| Effective energy change [hartree]                            -0.0108993228
 OPT| Decrease in energy                                                     YES
 OPT| Used time [s]                                                       87.782
 OPT|
 OPT| Maximum step size                                             0.1004636004
 OPT| Convergence limit for maximum step size                       0.0030000000
 OPT| Maximum step size is converged                                          NO
 OPT|
 OPT| RMS step size                                                 0.0199296769
 OPT| Convergence limit for RMS step size                           0.0015000000
 OPT| RMS step size is converged                                              NO
 OPT|
 OPT| Maximum gradient                                              0.0158706951
 OPT| Convergence limit for maximum gradient                        0.0010000000
 OPT| Maximum gradient is converged                                           NO
 OPT|
 OPT| RMS gradient                                                  0.0044800053
 OPT| Convergence limit for RMS gradient                            0.0003000000
 OPT| RMS gradient is converged                                               NO
 OPT| **************************************************************************
 OPT| Estimated peak process memory after this step [MiB]                   1980

 --------------------------
 OPTIMIZATION STEP:     14
 --------------------------

 Number of electrons:                                                        416
 Number of occupied orbitals:                                                208
 Number of molecular orbitals:                                               208

 Number of orbital functions:                                                318
 Number of independent orbital functions:                                    318

 Extrapolation method: ASPC


 SCF WAVEFUNCTION OPTIMIZATION

  ----------------------------------- OT ---------------------------------------
  Minimizer      : DIIS                : direct inversion
                                         in the iterative subspace
                                         using   7 DIIS vectors
                                         safer DIIS on
  Preconditioner : FULL_SINGLE_INVERSE : inversion of 
                                         H + eS - 2*(Sc)(c^T*H*c+const)(Sc)^T
  Precond_solver : DEFAULT
  stepsize       :    0.08000000                  energy_gap     :    0.08000000
  eps_taylor     :   0.10000E-15                  max_taylor     :             4
  ----------------------------------- OT ---------------------------------------

  Step     Update method      Time    Convergence         Total energy    Change
  ------------------------------------------------------------------------------
     1 OT DIIS     0.80E-01    6.5     0.00166208      -920.5307195620 -9.21E+02
     2 OT DIIS     0.80E-01    7.8     0.00087210      -920.5397163304 -9.00E-03
     3 OT DIIS     0.80E-01    7.8     0.00054061      -920.5420945424 -2.38E-03
     4 OT DIIS     0.80E-01    7.8     0.00020788      -920.5433759069 -1.28E-03
     5 OT DIIS     0.80E-01    7.8     0.00008505      -920.5435818752 -2.06E-04
     6 OT DIIS     0.80E-01    7.8     0.00003977      -920.5436156116 -3.37E-05
     7 OT DIIS     0.80E-01    7.8     0.00001708      -920.5436223579 -6.75E-06
     8 OT DIIS     0.80E-01    7.8     0.00000809      -920.5436238217 -1.46E-06

  *** SCF run converged in     8 steps ***


  Electronic density on regular grids:       -415.9999992046        0.0000007954
  Core density on regular grids:              415.9999999754       -0.0000000246
  Total charge density on r-space grids:        0.0000007708
  Total charge density g-space grids:           0.0000007708

  Overlap energy of the core charge distribution:               0.00000010333649
  Self energy of the core charge distribution:              -2388.37244906618980
  Core Hamiltonian energy:                                    696.04440008007361
  Hartree energy:                                             990.94521814702853
  Exchange-correlation energy:                               -219.16079308590341

  Total energy:                                              -920.54362382165482

 ENERGY| Total FORCE_EVAL ( QS ) energy [hartree]           -920.543624137428196

 OPT| **************************************************************************
 OPT| Step number                                                             14
 OPT| Optimization method                                                  LBFGS
 OPT| Total energy [hartree]                                     -920.5436241374
 OPT| Effective energy change [hartree]                            -0.0102685940
 OPT| Decrease in energy                                                     YES
 OPT| Used time [s]                                                       72.012
 OPT|
 OPT| Maximum step size                                             0.0821201813
 OPT| Convergence limit for maximum step size                       0.0030000000
 OPT| Maximum step size is converged                                          NO
 OPT|
 OPT| RMS step size                                                 0.0194280460
 OPT| Convergence limit for RMS step size                           0.0015000000
 OPT| RMS step size is converged                                              NO
 OPT|
 OPT| Maximum gradient                                              0.0173619724
 OPT| Convergence limit for maximum gradient                        0.0010000000
 OPT| Maximum gradient is converged                                           NO
 OPT|
 OPT| RMS gradient                                                  0.0051131000
 OPT| Convergence limit for RMS gradient                            0.0003000000
 OPT| RMS gradient is converged                                               NO
 OPT| **************************************************************************
 OPT| Estimated peak process memory after this step [MiB]                   1980

 --------------------------
 OPTIMIZATION STEP:     15
 --------------------------

 Number of electrons:                                                        416
 Number of occupied orbitals:                                                208
 Number of molecular orbitals:                                               208

 Number of orbital functions:                                                318
 Number of independent orbital functions:                                    318

 Extrapolation method: ASPC


 SCF WAVEFUNCTION OPTIMIZATION

  ----------------------------------- OT ---------------------------------------
  Minimizer      : DIIS                : direct inversion
                                         in the iterative subspace
                                         using   7 DIIS vectors
                                         safer DIIS on
  Preconditioner : FULL_SINGLE_INVERSE : inversion of 
                                         H + eS - 2*(Sc)(c^T*H*c+const)(Sc)^T
  Precond_solver : DEFAULT
  stepsize       :    0.08000000                  energy_gap     :    0.08000000
  eps_taylor     :   0.10000E-15                  max_taylor     :             4
  ----------------------------------- OT ---------------------------------------

  Step     Update method      Time    Convergence         Total energy    Change
  ------------------------------------------------------------------------------
     1 OT DIIS     0.80E-01    6.4     0.00111164      -920.5523464455 -9.21E+02
     2 OT DIIS     0.80E-01    7.8     0.00063860      -920.5565945893 -4.25E-03
     3 OT DIIS     0.80E-01    7.8     0.00044289      -920.5578367226 -1.24E-03
     4 OT DIIS     0.80E-01    7.8     0.00017614      -920.5585757630 -7.39E-04
     5 OT DIIS     0.80E-01    7.8     0.00007395      -920.5586856519 -1.10E-04
     6 OT DIIS     0.80E-01    7.8     0.00003636      -920.5587045526 -1.89E-05
     7 OT DIIS     0.80E-01    7.8     0.00001638      -920.5587098272 -5.27E-06
     8 OT DIIS     0.80E-01    7.8     0.00000736      -920.5587110227 -1.20E-06

  *** SCF run converged in     8 steps ***


  Electronic density on regular grids:       -415.9999995618        0.0000004382
  Core density on regular grids:              415.9999999754       -0.0000000246
  Total charge density on r-space grids:        0.0000004136
  Total charge density g-space grids:           0.0000004136

  Overlap energy of the core charge distribution:               0.00000009653079
  Self energy of the core charge distribution:              -2388.37244906618980
  Core Hamiltonian energy:                                    695.89045433546380
  Hartree energy:                                             991.04189395108585
  Exchange-correlation energy:                               -219.11861033959374

  Total energy:                                              -920.55871102270328

 ENERGY| Total FORCE_EVAL ( QS ) energy [hartree]           -920.558711247554584

 OPT| **************************************************************************
 OPT| Step number                                                             15
 OPT| Optimization method                                                  LBFGS
 OPT| Total energy [hartree]                                     -920.5587112476
 OPT| Effective energy change [hartree]                            -0.0150871101
 OPT| Decrease in energy                                                     YES
 OPT| Used time [s]                                                       72.002
 OPT|
 OPT| Maximum step size                                             0.1429624194
 OPT| Convergence limit for maximum step size                       0.0030000000
 OPT| Maximum step size is converged                                          NO
 OPT|
 OPT| RMS step size                                                 0.0408747130
 OPT| Convergence limit for RMS step size                           0.0015000000
 OPT| RMS step size is converged                                              NO
 OPT|
 OPT| Maximum gradient                                              0.0300395852
 OPT| Convergence limit for maximum gradient                        0.0010000000
 OPT| Maximum gradient is converged                                           NO
 OPT|
 OPT| RMS gradient                                                  0.0062706141
 OPT| Convergence limit for RMS gradient                            0.0003000000
 OPT| RMS gradient is converged                                               NO
 OPT| **************************************************************************
 OPT| Estimated peak process memory after this step [MiB]                   1980

 --------------------------
 OPTIMIZATION STEP:     16
 --------------------------

 Number of electrons:                                                        416
 Number of occupied orbitals:                                                208
 Number of molecular orbitals:                                               208

 Number of orbital functions:                                                318
 Number of independent orbital functions:                                    318

 Extrapolation method: ASPC


 SCF WAVEFUNCTION OPTIMIZATION

  ----------------------------------- OT ---------------------------------------
  Minimizer      : DIIS                : direct inversion
                                         in the iterative subspace
                                         using   7 DIIS vectors
                                         safer DIIS on
  Preconditioner : FULL_SINGLE_INVERSE : inversion of 
                                         H + eS - 2*(Sc)(c^T*H*c+const)(Sc)^T
  Precond_solver : DEFAULT
  stepsize       :    0.08000000                  energy_gap     :    0.08000000
  eps_taylor     :   0.10000E-15                  max_taylor     :             4
  ----------------------------------- OT ---------------------------------------

  Step     Update method      Time    Convergence         Total energy    Change
  ------------------------------------------------------------------------------
     1 OT DIIS     0.80E-01    6.5     0.00166215      -920.5613678474 -9.21E+02
     2 OT DIIS     0.80E-01    7.8     0.00091388      -920.5709384771 -9.57E-03
     3 OT DIIS     0.80E-01    7.8     0.00058865      -920.5738298719 -2.89E-03
     4 OT DIIS     0.80E-01    7.8     0.00022211      -920.5753733658 -1.54E-03
     5 OT DIIS     0.80E-01    7.8     0.00008912      -920.5755825973 -2.09E-04
     6 OT DIIS     0.80E-01    7.8     0.00004686      -920.5756176541 -3.51E-05
     7 OT DIIS     0.80E-01    7.9     0.00002231      -920.5756252630 -7.61E-06
     8 OT DIIS     0.80E-01    7.8     0.00000996      -920.5756271492 -1.89E-06

  *** SCF run converged in     8 steps ***


  Electronic density on regular grids:       -416.0000001807       -0.0000001807
  Core density on regular grids:              415.9999999754       -0.0000000246
  Total charge density on r-space grids:       -0.0000002053
  Total charge density g-space grids:          -0.0000002053

  Overlap energy of the core charge distribution:               0.00000008565931
  Self energy of the core charge distribution:              -2388.37244906618980
  Core Hamiltonian energy:                                    696.06457506137667
  Hartree energy:                                             990.88924111634708
  Exchange-correlation energy:                               -219.15699434642164

  Total energy:                                              -920.57562714922824

 ENERGY| Total FORCE_EVAL ( QS ) energy [hartree]           -920.575627524482002

 OPT| **************************************************************************
 OPT| Step number                                                             16
 OPT| Optimization method                                                  LBFGS
 OPT| Total energy [hartree]                                     -920.5756275245
 OPT| Effective energy change [hartree]                            -0.0169162769
 OPT| Decrease in energy                                                     YES
 OPT| Used time [s]                                                       72.215
 OPT|
 OPT| Maximum step size                                             0.1640523378
 OPT| Convergence limit for maximum step size                       0.0030000000
 OPT| Maximum step size is converged                                          NO
 OPT|
 OPT| RMS step size                                                 0.0477474861
 OPT| Convergence limit for RMS step size                           0.0015000000
 OPT| RMS step size is converged                                              NO
 OPT|
 OPT| Maximum gradient                                              0.0425072977
 OPT| Convergence limit for maximum gradient                        0.0010000000
 OPT| Maximum gradient is converged                                           NO
 OPT|
 OPT| RMS gradient                                                  0.0088155153
 OPT| Convergence limit for RMS gradient                            0.0003000000
 OPT| RMS gradient is converged                                               NO
 OPT| **************************************************************************
 OPT| Estimated peak process memory after this step [MiB]                   1980

 --------------------------
 OPTIMIZATION STEP:     17
 --------------------------

 Number of electrons:                                                        416
 Number of occupied orbitals:                                                208
 Number of molecular orbitals:                                               208

 Number of orbital functions:                                                318
 Number of independent orbital functions:                                    318

 Extrapolation method: ASPC


 SCF WAVEFUNCTION OPTIMIZATION

  ----------------------------------- OT ---------------------------------------
  Minimizer      : DIIS                : direct inversion
                                         in the iterative subspace
                                         using   7 DIIS vectors
                                         safer DIIS on
  Preconditioner : FULL_SINGLE_INVERSE : inversion of 
                                         H + eS - 2*(Sc)(c^T*H*c+const)(Sc)^T
  Precond_solver : DEFAULT
  stepsize       :    0.08000000                  energy_gap     :    0.08000000
  eps_taylor     :   0.10000E-15                  max_taylor     :             4
  ----------------------------------- OT ---------------------------------------

  Step     Update method      Time    Convergence         Total energy    Change
  ------------------------------------------------------------------------------
     1 OT DIIS     0.80E-01    6.5     0.00223613      -920.5676398040 -9.21E+02
     2 OT DIIS     0.80E-01    7.8     0.00119835      -920.5850820949 -1.74E-02
     3 OT DIIS     0.80E-01    7.9     0.00079683      -920.5899646374 -4.88E-03
     4 OT DIIS     0.80E-01    7.9     0.00029696      -920.5923197610 -2.36E-03
     5 OT DIIS     0.80E-01    7.9     0.00013739      -920.5926636503 -3.44E-04
     6 OT DIIS     0.80E-01    7.8     0.00006664      -920.5927274265 -6.38E-05
     7 OT DIIS     0.80E-01    7.9     0.00002803      -920.5927437395 -1.63E-05
     8 OT DIIS     0.80E-01    7.8     0.00001223      -920.5927473313 -3.59E-06
     9 OT DIIS     0.80E-01    7.8     0.00000651      -920.5927479684 -6.37E-07

  *** SCF run converged in     9 steps ***


  Electronic density on regular grids:       -416.0000001575       -0.0000001575
  Core density on regular grids:              415.9999999754       -0.0000000246
  Total charge density on r-space grids:       -0.0000001821
  Total charge density g-space grids:          -0.0000001821

  Overlap energy of the core charge distribution:               0.00000007359109
  Self energy of the core charge distribution:              -2388.37244906618980
  Core Hamiltonian energy:                                    695.92364963710168
  Hartree energy:                                             990.98273036161424
  Exchange-correlation energy:                               -219.12667897448017

  Total energy:                                              -920.59274796836257

 ENERGY| Total FORCE_EVAL ( QS ) energy [hartree]           -920.592748141178731

 OPT| **************************************************************************
 OPT| Step number                                                             17
 OPT| Optimization method                                                  LBFGS
 OPT| Total energy [hartree]                                     -920.5927481412
 OPT| Effective energy change [hartree]                            -0.0171206167
 OPT| Decrease in energy                                                     YES
 OPT| Used time [s]                                                       80.079
 OPT|
 OPT| Maximum step size                                             0.1201673115
 OPT| Convergence limit for maximum step size                       0.0030000000
 OPT| Maximum step size is converged                                          NO
 OPT|
 OPT| RMS step size                                                 0.0310409686
 OPT| Convergence limit for RMS step size                           0.0015000000
 OPT| RMS step size is converged                                              NO
 OPT|
 OPT| Maximum gradient                                              0.0264976892
 OPT| Convergence limit for maximum gradient                        0.0010000000
 OPT| Maximum gradient is converged                                           NO
 OPT|
 OPT| RMS gradient                                                  0.0057482319
 OPT| Convergence limit for RMS gradient                            0.0003000000
 OPT| RMS gradient is converged                                               NO
 OPT| **************************************************************************
 OPT| Estimated peak process memory after this step [MiB]                   1982

 --------------------------
 OPTIMIZATION STEP:     18
 --------------------------

 Number of electrons:                                                        416
 Number of occupied orbitals:                                                208
 Number of molecular orbitals:                                               208

 Number of orbital functions:                                                318
 Number of independent orbital functions:                                    318

 Extrapolation method: ASPC


 SCF WAVEFUNCTION OPTIMIZATION

  ----------------------------------- OT ---------------------------------------
  Minimizer      : DIIS                : direct inversion
                                         in the iterative subspace
                                         using   7 DIIS vectors
                                         safer DIIS on
  Preconditioner : FULL_SINGLE_INVERSE : inversion of 
                                         H + eS - 2*(Sc)(c^T*H*c+const)(Sc)^T
  Precond_solver : DEFAULT
  stepsize       :    0.08000000                  energy_gap     :    0.08000000
  eps_taylor     :   0.10000E-15                  max_taylor     :             4
  ----------------------------------- OT ---------------------------------------

  Step     Update method      Time    Convergence         Total energy    Change
  ------------------------------------------------------------------------------
     1 OT DIIS     0.80E-01    6.5     0.00150144      -920.5910289017 -9.21E+02
     2 OT DIIS     0.80E-01    7.8     0.00080634      -920.5990190439 -7.99E-03
     3 OT DIIS     0.80E-01    7.8     0.00052564      -920.6013788428 -2.36E-03
     4 OT DIIS     0.80E-01    7.8     0.00018937      -920.6024765977 -1.10E-03
     5 OT DIIS     0.80E-01    7.8     0.00008438      -920.6026359783 -1.59E-04
     6 OT DIIS     0.80E-01    7.8     0.00004374      -920.6026631129 -2.71E-05
     7 OT DIIS     0.80E-01    7.9     0.00001886      -920.6026695151 -6.40E-06
     8 OT DIIS     0.80E-01    7.8     0.00000769      -920.6026710060 -1.49E-06

  *** SCF run converged in     8 steps ***


  Electronic density on regular grids:       -415.9999998119        0.0000001881
  Core density on regular grids:              415.9999999754       -0.0000000246
  Total charge density on r-space grids:        0.0000001635
  Total charge density g-space grids:           0.0000001635

  Overlap energy of the core charge distribution:               0.00000011320969
  Self energy of the core charge distribution:              -2388.37244906618980
  Core Hamiltonian energy:                                    696.04858596833139
  Hartree energy:                                             990.91104080862669
  Exchange-correlation energy:                               -219.18984882996602

  Total energy:                                              -920.60267100598799

 ENERGY| Total FORCE_EVAL ( QS ) energy [hartree]           -920.602671273932856

 OPT| **************************************************************************
 OPT| Step number                                                             18
 OPT| Optimization method                                                  LBFGS
 OPT| Total energy [hartree]                                     -920.6026712739
 OPT| Effective energy change [hartree]                            -0.0099231328
 OPT| Decrease in energy                                                     YES
 OPT| Used time [s]                                                       72.230
 OPT|
 OPT| Maximum step size                                             0.0576229792
 OPT| Convergence limit for maximum step size                       0.0030000000
 OPT| Maximum step size is converged                                          NO
 OPT|
 OPT| RMS step size                                                 0.0199994776
 OPT| Convergence limit for RMS step size                           0.0015000000
 OPT| RMS step size is converged                                              NO
 OPT|
 OPT| Maximum gradient                                              0.0561770702
 OPT| Convergence limit for maximum gradient                        0.0010000000
 OPT| Maximum gradient is converged                                           NO
 OPT|
 OPT| RMS gradient                                                  0.0073763963
 OPT| Convergence limit for RMS gradient                            0.0003000000
 OPT| RMS gradient is converged                                               NO
 OPT| **************************************************************************
 OPT| Estimated peak process memory after this step [MiB]                   1982

 --------------------------
 OPTIMIZATION STEP:     19
 --------------------------

 Number of electrons:                                                        416
 Number of occupied orbitals:                                                208
 Number of molecular orbitals:                                               208

 Number of orbital functions:                                                318
 Number of independent orbital functions:                                    318

 Extrapolation method: ASPC


 SCF WAVEFUNCTION OPTIMIZATION

  ----------------------------------- OT ---------------------------------------
  Minimizer      : DIIS                : direct inversion
                                         in the iterative subspace
                                         using   7 DIIS vectors
                                         safer DIIS on
  Preconditioner : FULL_SINGLE_INVERSE : inversion of 
                                         H + eS - 2*(Sc)(c^T*H*c+const)(Sc)^T
  Precond_solver : DEFAULT
  stepsize       :    0.08000000                  energy_gap     :    0.08000000
  eps_taylor     :   0.10000E-15                  max_taylor     :             4
  ----------------------------------- OT ---------------------------------------

  Step     Update method      Time    Convergence         Total energy    Change
  ------------------------------------------------------------------------------
     1 OT DIIS     0.80E-01    6.5     0.00216278      -920.5864009834 -9.21E+02
     2 OT DIIS     0.80E-01    7.9     0.00116234      -920.6034041268 -1.70E-02
     3 OT DIIS     0.80E-01    7.8     0.00074698      -920.6087107974 -5.31E-03
     4 OT DIIS     0.80E-01    7.8     0.00029446      -920.6108903812 -2.18E-03
     5 OT DIIS     0.80E-01    7.9     0.00013528      -920.6112200417 -3.30E-04
     6 OT DIIS     0.80E-01    7.9     0.00006643      -920.6112845762 -6.45E-05
     7 OT DIIS     0.80E-01    7.8     0.00002952      -920.6112994788 -1.49E-05
     8 OT DIIS     0.80E-01    7.9     0.00001368      -920.6113030179 -3.54E-06
     9 OT DIIS     0.80E-01    7.8     0.00000705      -920.6113038250 -8.07E-07

  *** SCF run converged in     9 steps ***


  Electronic density on regular grids:       -416.0000005031       -0.0000005031
  Core density on regular grids:              415.9999999751       -0.0000000249
  Total charge density on r-space grids:       -0.0000005281
  Total charge density g-space grids:          -0.0000005281

  Overlap energy of the core charge distribution:               0.00000007986077
  Self energy of the core charge distribution:              -2388.37244906618980
  Core Hamiltonian energy:                                    695.93934206415031
  Hartree energy:                                             990.96700720397564
  Exchange-correlation energy:                               -219.14520410676178

  Total energy:                                              -920.61130382496458

 ENERGY| Total FORCE_EVAL ( QS ) energy [hartree]           -920.611304027164351

 OPT| **************************************************************************
 OPT| Step number                                                             19
 OPT| Optimization method                                                  LBFGS
 OPT| Total energy [hartree]                                     -920.6113040272
 OPT| Effective energy change [hartree]                            -0.0086327532
 OPT| Decrease in energy                                                     YES
 OPT| Used time [s]                                                       80.094
 OPT|
 OPT| Maximum step size                                             0.0686600763
 OPT| Convergence limit for maximum step size                       0.0030000000
 OPT| Maximum step size is converged                                          NO
 OPT|
 OPT| RMS step size                                                 0.0210465360
 OPT| Convergence limit for RMS step size                           0.0015000000
 OPT| RMS step size is converged                                              NO
 OPT|
 OPT| Maximum gradient                                              0.0161188449
 OPT| Convergence limit for maximum gradient                        0.0010000000
 OPT| Maximum gradient is converged                                           NO
 OPT|
 OPT| RMS gradient                                                  0.0042770545
 OPT| Convergence limit for RMS gradient                            0.0003000000
 OPT| RMS gradient is converged                                               NO
 OPT| **************************************************************************
 OPT| Estimated peak process memory after this step [MiB]                   1982

 --------------------------
 OPTIMIZATION STEP:     20
 --------------------------

 Number of electrons:                                                        416
 Number of occupied orbitals:                                                208
 Number of molecular orbitals:                                               208

 Number of orbital functions:                                                318
 Number of independent orbital functions:                                    318

 Extrapolation method: ASPC


 SCF WAVEFUNCTION OPTIMIZATION

  ----------------------------------- OT ---------------------------------------
  Minimizer      : DIIS                : direct inversion
                                         in the iterative subspace
                                         using   7 DIIS vectors
                                         safer DIIS on
  Preconditioner : FULL_SINGLE_INVERSE : inversion of 
                                         H + eS - 2*(Sc)(c^T*H*c+const)(Sc)^T
  Precond_solver : DEFAULT
  stepsize       :    0.08000000                  energy_gap     :    0.08000000
  eps_taylor     :   0.10000E-15                  max_taylor     :             4
  ----------------------------------- OT ---------------------------------------

  Step     Update method      Time    Convergence         Total energy    Change
  ------------------------------------------------------------------------------
     1 OT DIIS     0.80E-01    6.5     0.00236796      -920.5892215786 -9.21E+02
     2 OT DIIS     0.80E-01    7.8     0.00123749      -920.6096456439 -2.04E-02
     3 OT DIIS     0.80E-01    7.8     0.00073390      -920.6162871793 -6.64E-03
     4 OT DIIS     0.80E-01    7.9     0.00030175      -920.6187867386 -2.50E-03
     5 OT DIIS     0.80E-01    7.9     0.00012254      -920.6191751204 -3.88E-04
     6 OT DIIS     0.80E-01    7.8     0.00005516      -920.6192392868 -6.42E-05
     7 OT DIIS     0.80E-01    7.9     0.00002646      -920.6192516647 -1.24E-05
     8 OT DIIS     0.80E-01    7.9     0.00001153      -920.6192551949 -3.53E-06
     9 OT DIIS     0.80E-01    7.8     0.00000535      -920.6192558938 -6.99E-07

  *** SCF run converged in     9 steps ***


  Electronic density on regular grids:       -416.0000002877       -0.0000002877
  Core density on regular grids:              415.9999999750       -0.0000000250
  Total charge density on r-space grids:       -0.0000003127
  Total charge density g-space grids:          -0.0000003127

  Overlap energy of the core charge distribution:               0.00000007208126
  Self energy of the core charge distribution:              -2388.37244906618980
  Core Hamiltonian energy:                                    695.98561226881941
  Hartree energy:                                             990.91972819022249
  Exchange-correlation energy:                               -219.15214735874648

  Total energy:                                              -920.61925589381337

 ENERGY| Total FORCE_EVAL ( QS ) energy [hartree]           -920.619256036014917

 OPT| **************************************************************************
 OPT| Step number                                                             20
 OPT| Optimization method                                                  LBFGS
 OPT| Total energy [hartree]                                     -920.6192560360
 OPT| Effective energy change [hartree]                            -0.0079520089
 OPT| Decrease in energy                                                     YES
 OPT| Used time [s]                                                       80.145
 OPT|
 OPT| Maximum step size                                             0.0432517327
 OPT| Convergence limit for maximum step size                       0.0030000000
 OPT| Maximum step size is converged                                          NO
 OPT|
 OPT| RMS step size                                                 0.0112756705
 OPT| Convergence limit for RMS step size                           0.0015000000
 OPT| RMS step size is converged                                              NO
 OPT|
 OPT| Maximum gradient                                              0.0118094304
 OPT| Convergence limit for maximum gradient                        0.0010000000
 OPT| Maximum gradient is converged                                           NO
 OPT|
 OPT| RMS gradient                                                  0.0036844187
 OPT| Convergence limit for RMS gradient                            0.0003000000
 OPT| RMS gradient is converged                                               NO
 OPT| **************************************************************************
 OPT| Estimated peak process memory after this step [MiB]                   1985

 --------------------------
 OPTIMIZATION STEP:     21
 --------------------------

 Number of electrons:                                                        416
 Number of occupied orbitals:                                                208
 Number of molecular orbitals:                                               208

 Number of orbital functions:                                                318
 Number of independent orbital functions:                                    318

 Extrapolation method: ASPC


 SCF WAVEFUNCTION OPTIMIZATION

  ----------------------------------- OT ---------------------------------------
  Minimizer      : DIIS                : direct inversion
                                         in the iterative subspace
                                         using   7 DIIS vectors
                                         safer DIIS on
  Preconditioner : FULL_SINGLE_INVERSE : inversion of 
                                         H + eS - 2*(Sc)(c^T*H*c+const)(Sc)^T
  Precond_solver : DEFAULT
  stepsize       :    0.08000000                  energy_gap     :    0.08000000
  eps_taylor     :   0.10000E-15                  max_taylor     :             4
  ----------------------------------- OT ---------------------------------------

  Step     Update method      Time    Convergence         Total energy    Change
  ------------------------------------------------------------------------------
     1 OT DIIS     0.80E-01    6.5     0.00109990      -920.6228169167 -9.21E+02
     2 OT DIIS     0.80E-01    7.9     0.00059619      -920.6273509443 -4.53E-03
     3 OT DIIS     0.80E-01    7.8     0.00035899      -920.6289483065 -1.60E-03
     4 OT DIIS     0.80E-01    7.8     0.00014507      -920.6295082168 -5.60E-04
     5 OT DIIS     0.80E-01    7.8     0.00005710      -920.6295951067 -8.69E-05
     6 OT DIIS     0.80E-01    7.8     0.00002687      -920.6296086490 -1.35E-05
     7 OT DIIS     0.80E-01    7.8     0.00001264      -920.6296116086 -2.96E-06
     8 OT DIIS     0.80E-01    7.8     0.00000544      -920.6296124023 -7.94E-07

  *** SCF run converged in     8 steps ***


  Electronic density on regular grids:       -415.9999993300        0.0000006700
  Core density on regular grids:              415.9999999753       -0.0000000247
  Total charge density on r-space grids:        0.0000006453
  Total charge density g-space grids:           0.0000006453

  Overlap energy of the core charge distribution:               0.00000007365030
  Self energy of the core charge distribution:              -2388.37244906618980
  Core Hamiltonian energy:                                    696.15393249245290
  Hartree energy:                                             990.78632025387094
  Exchange-correlation energy:                               -219.19741615603962

  Total energy:                                              -920.62961240225513

 ENERGY| Total FORCE_EVAL ( QS ) energy [hartree]           -920.629612551888272

 OPT| **************************************************************************
 OPT| Step number                                                             21
 OPT| Optimization method                                                  LBFGS
 OPT| Total energy [hartree]                                     -920.6296125519
 OPT| Effective energy change [hartree]                            -0.0103565159
 OPT| Decrease in energy                                                     YES
 OPT| Used time [s]                                                       72.198
 OPT|
 OPT| Maximum step size                                             0.0805445733
 OPT| Convergence limit for maximum step size                       0.0030000000
 OPT| Maximum step size is converged                                          NO
 OPT|
 OPT| RMS step size                                                 0.0219415577
 OPT| Convergence limit for RMS step size                           0.0015000000
 OPT| RMS step size is converged                                              NO
 OPT|
 OPT| Maximum gradient                                              0.0279292843
 OPT| Convergence limit for maximum gradient                        0.0010000000
 OPT| Maximum gradient is converged                                           NO
 OPT|
 OPT| RMS gradient                                                  0.0044407244
 OPT| Convergence limit for RMS gradient                            0.0003000000
 OPT| RMS gradient is converged                                               NO
 OPT| **************************************************************************
 OPT| Estimated peak process memory after this step [MiB]                   1990

 --------------------------
 OPTIMIZATION STEP:     22
 --------------------------

 Number of electrons:                                                        416
 Number of occupied orbitals:                                                208
 Number of molecular orbitals:                                               208

 Number of orbital functions:                                                318
 Number of independent orbital functions:                                    318

 Extrapolation method: ASPC


 SCF WAVEFUNCTION OPTIMIZATION

  ----------------------------------- OT ---------------------------------------
  Minimizer      : DIIS                : direct inversion
                                         in the iterative subspace
                                         using   7 DIIS vectors
                                         safer DIIS on
  Preconditioner : FULL_SINGLE_INVERSE : inversion of 
                                         H + eS - 2*(Sc)(c^T*H*c+const)(Sc)^T
  Precond_solver : DEFAULT
  stepsize       :    0.08000000                  energy_gap     :    0.08000000
  eps_taylor     :   0.10000E-15                  max_taylor     :             4
  ----------------------------------- OT ---------------------------------------

  Step     Update method      Time    Convergence         Total energy    Change
  ------------------------------------------------------------------------------
     1 OT DIIS     0.80E-01    6.5     0.00093445      -920.6345552853 -9.21E+02
     2 OT DIIS     0.80E-01    7.8     0.00051250      -920.6374842508 -2.93E-03
     3 OT DIIS     0.80E-01    7.9     0.00032118      -920.6383396711 -8.55E-04
     4 OT DIIS     0.80E-01    7.8     0.00011441      -920.6388310387 -4.91E-04
     5 OT DIIS     0.80E-01    7.8     0.00004866      -920.6388937825 -6.27E-05
     6 OT DIIS     0.80E-01    7.8     0.00002271      -920.6389037282 -9.95E-06
     7 OT DIIS     0.80E-01    7.9     0.00001070      -920.6389060825 -2.35E-06
     8 OT DIIS     0.80E-01    7.9     0.00000479      -920.6389066588 -5.76E-07

  *** SCF run converged in     8 steps ***


  Electronic density on regular grids:       -415.9999983380        0.0000016620
  Core density on regular grids:              415.9999999752       -0.0000000248
  Total charge density on r-space grids:        0.0000016372
  Total charge density g-space grids:           0.0000016372

  Overlap energy of the core charge distribution:               0.00000006760522
  Self energy of the core charge distribution:              -2388.37244906618980
  Core Hamiltonian energy:                                    696.14968389067155
  Hartree energy:                                             990.77438358167501
  Exchange-correlation energy:                               -219.19052513256489

  Total energy:                                              -920.63890665880319

 ENERGY| Total FORCE_EVAL ( QS ) energy [hartree]           -920.638906780310663

 OPT| **************************************************************************
 OPT| Step number                                                             22
 OPT| Optimization method                                                  LBFGS
 OPT| Total energy [hartree]                                     -920.6389067803
 OPT| Effective energy change [hartree]                            -0.0092942284
 OPT| Decrease in energy                                                     YES
 OPT| Used time [s]                                                       72.271
 OPT|
 OPT| Maximum step size                                             0.1167865534
 OPT| Convergence limit for maximum step size                       0.0030000000
 OPT| Maximum step size is converged                                          NO
 OPT|
 OPT| RMS step size                                                 0.0267439567
 OPT| Convergence limit for RMS step size                           0.0015000000
 OPT| RMS step size is converged                                              NO
 OPT|
 OPT| Maximum gradient                                              0.0296335871
 OPT| Convergence limit for maximum gradient                        0.0010000000
 OPT| Maximum gradient is converged                                           NO
 OPT|
 OPT| RMS gradient                                                  0.0055445356
 OPT| Convergence limit for RMS gradient                            0.0003000000
 OPT| RMS gradient is converged                                               NO
 OPT| **************************************************************************
 OPT| Estimated peak process memory after this step [MiB]                   1990

 --------------------------
 OPTIMIZATION STEP:     23
 --------------------------

 Number of electrons:                                                        416
 Number of occupied orbitals:                                                208
 Number of molecular orbitals:                                               208

 Number of orbital functions:                                                318
 Number of independent orbital functions:                                    318

 Extrapolation method: ASPC


 SCF WAVEFUNCTION OPTIMIZATION

  ----------------------------------- OT ---------------------------------------
  Minimizer      : DIIS                : direct inversion
                                         in the iterative subspace
                                         using   7 DIIS vectors
                                         safer DIIS on
  Preconditioner : FULL_SINGLE_INVERSE : inversion of 
                                         H + eS - 2*(Sc)(c^T*H*c+const)(Sc)^T
  Precond_solver : DEFAULT
  stepsize       :    0.08000000                  energy_gap     :    0.08000000
  eps_taylor     :   0.10000E-15                  max_taylor     :             4
  ----------------------------------- OT ---------------------------------------

  Step     Update method      Time    Convergence         Total energy    Change
  ------------------------------------------------------------------------------
     1 OT DIIS     0.80E-01    6.5     0.00097652      -920.6454437771 -9.21E+02
     2 OT DIIS     0.80E-01    7.8     0.00050736      -920.6486250547 -3.18E-03
     3 OT DIIS     0.80E-01    7.8     0.00030773      -920.6495041309 -8.79E-04
     4 OT DIIS     0.80E-01    7.8     0.00011057      -920.6499620093 -4.58E-04
     5 OT DIIS     0.80E-01    7.9     0.00004510      -920.6500275649 -6.56E-05
     6 OT DIIS     0.80E-01    7.8     0.00002029      -920.6500377913 -1.02E-05
     7 OT DIIS     0.80E-01    7.9     0.00000933      -920.6500397025 -1.91E-06

  *** SCF run converged in     7 steps ***


  Electronic density on regular grids:       -415.9999979863        0.0000020137
  Core density on regular grids:              415.9999999751       -0.0000000249
  Total charge density on r-space grids:        0.0000019888
  Total charge density g-space grids:           0.0000019888

  Overlap energy of the core charge distribution:               0.00000007208578
  Self energy of the core charge distribution:              -2388.37244906618980
  Core Hamiltonian energy:                                    696.19149327191542
  Hartree energy:                                             990.73681722774199
  Exchange-correlation energy:                               -219.20590120802456

  Total energy:                                              -920.65003970247119

 ENERGY| Total FORCE_EVAL ( QS ) energy [hartree]           -920.650040177531878

 OPT| **************************************************************************
 OPT| Step number                                                             23
 OPT| Optimization method                                                  LBFGS
 OPT| Total energy [hartree]                                     -920.6500401775
 OPT| Effective energy change [hartree]                            -0.0111333972
 OPT| Decrease in energy                                                     YES
 OPT| Used time [s]                                                       64.377
 OPT|
 OPT| Maximum step size                                             0.1580356055
 OPT| Convergence limit for maximum step size                       0.0030000000
 OPT| Maximum step size is converged                                          NO
 OPT|
 OPT| RMS step size                                                 0.0374164856
 OPT| Convergence limit for RMS step size                           0.0015000000
 OPT| RMS step size is converged                                              NO
 OPT|
 OPT| Maximum gradient                                              0.0329071230
 OPT| Convergence limit for maximum gradient                        0.0010000000
 OPT| Maximum gradient is converged                                           NO
 OPT|
 OPT| RMS gradient                                                  0.0050713826
 OPT| Convergence limit for RMS gradient                            0.0003000000
 OPT| RMS gradient is converged                                               NO
 OPT| **************************************************************************
 OPT| Estimated peak process memory after this step [MiB]                   1993

 --------------------------
 OPTIMIZATION STEP:     24
 --------------------------

 Number of electrons:                                                        416
 Number of occupied orbitals:                                                208
 Number of molecular orbitals:                                               208

 Number of orbital functions:                                                318
 Number of independent orbital functions:                                    318

 Extrapolation method: ASPC


 SCF WAVEFUNCTION OPTIMIZATION

  ----------------------------------- OT ---------------------------------------
  Minimizer      : DIIS                : direct inversion
                                         in the iterative subspace
                                         using   7 DIIS vectors
                                         safer DIIS on
  Preconditioner : FULL_SINGLE_INVERSE : inversion of 
                                         H + eS - 2*(Sc)(c^T*H*c+const)(Sc)^T
  Precond_solver : DEFAULT
  stepsize       :    0.08000000                  energy_gap     :    0.08000000
  eps_taylor     :   0.10000E-15                  max_taylor     :             4
  ----------------------------------- OT ---------------------------------------

  Step     Update method      Time    Convergence         Total energy    Change
  ------------------------------------------------------------------------------
     1 OT DIIS     0.80E-01    6.5     0.00124046      -920.6512778862 -9.21E+02
     2 OT DIIS     0.80E-01    7.8     0.00067816      -920.6570072836 -5.73E-03
     3 OT DIIS     0.80E-01    7.8     0.00039798      -920.6590643440 -2.06E-03
     4 OT DIIS     0.80E-01    7.8     0.00013525      -920.6598817284 -8.17E-04
     5 OT DIIS     0.80E-01    7.8     0.00005304      -920.6599815072 -9.98E-05
     6 OT DIIS     0.80E-01    7.9     0.00002385      -920.6599958066 -1.43E-05
     7 OT DIIS     0.80E-01    7.8     0.00001090      -920.6599985037 -2.70E-06
     8 OT DIIS     0.80E-01    7.8     0.00000458      -920.6599991348 -6.31E-07

  *** SCF run converged in     8 steps ***


  Electronic density on regular grids:       -415.9999982555        0.0000017445
  Core density on regular grids:              415.9999999751       -0.0000000249
  Total charge density on r-space grids:        0.0000017196
  Total charge density g-space grids:           0.0000017196

  Overlap energy of the core charge distribution:               0.00000008909003
  Self energy of the core charge distribution:              -2388.37244906618980
  Core Hamiltonian energy:                                    696.42866727116837
  Hartree energy:                                             990.55989022841084
  Exchange-correlation energy:                               -219.27610765731933

  Total energy:                                              -920.65999913484006

 ENERGY| Total FORCE_EVAL ( QS ) energy [hartree]           -920.659999251357021

 OPT| **************************************************************************
 OPT| Step number                                                             24
 OPT| Optimization method                                                  LBFGS
 OPT| Total energy [hartree]                                     -920.6599992514
 OPT| Effective energy change [hartree]                            -0.0099590738
 OPT| Decrease in energy                                                     YES
 OPT| Used time [s]                                                       72.210
 OPT|
 OPT| Maximum step size                                             0.1141924955
 OPT| Convergence limit for maximum step size                       0.0030000000
 OPT| Maximum step size is converged                                          NO
 OPT|
 OPT| RMS step size                                                 0.0323770526
 OPT| Convergence limit for RMS step size                           0.0015000000
 OPT| RMS step size is converged                                              NO
 OPT|
 OPT| Maximum gradient                                              0.0223210792
 OPT| Convergence limit for maximum gradient                        0.0010000000
 OPT| Maximum gradient is converged                                           NO
 OPT|
 OPT| RMS gradient                                                  0.0045070487
 OPT| Convergence limit for RMS gradient                            0.0003000000
 OPT| RMS gradient is converged                                               NO
 OPT| **************************************************************************
 OPT| Estimated peak process memory after this step [MiB]                   1993

 --------------------------
 OPTIMIZATION STEP:     25
 --------------------------

 Number of electrons:                                                        416
 Number of occupied orbitals:                                                208
 Number of molecular orbitals:                                               208

 Number of orbital functions:                                                318
 Number of independent orbital functions:                                    318

 Extrapolation method: ASPC


 SCF WAVEFUNCTION OPTIMIZATION

  ----------------------------------- OT ---------------------------------------
  Minimizer      : DIIS                : direct inversion
                                         in the iterative subspace
                                         using   7 DIIS vectors
                                         safer DIIS on
  Preconditioner : FULL_SINGLE_INVERSE : inversion of 
                                         H + eS - 2*(Sc)(c^T*H*c+const)(Sc)^T
  Precond_solver : DEFAULT
  stepsize       :    0.08000000                  energy_gap     :    0.08000000
  eps_taylor     :   0.10000E-15                  max_taylor     :             4
  ----------------------------------- OT ---------------------------------------

  Step     Update method      Time    Convergence         Total energy    Change
  ------------------------------------------------------------------------------
     1 OT DIIS     0.80E-01    6.5     0.00178057      -920.6485685374 -9.21E+02
     2 OT DIIS     0.80E-01    7.8     0.00097524      -920.6601853151 -1.16E-02
     3 OT DIIS     0.80E-01    7.9     0.00057326      -920.6642281081 -4.04E-03
     4 OT DIIS     0.80E-01    7.9     0.00018484      -920.6660210726 -1.79E-03
     5 OT DIIS     0.80E-01    7.8     0.00007741      -920.6662092242 -1.88E-04
     6 OT DIIS     0.80E-01    7.8     0.00003357      -920.6662391982 -3.00E-05
     7 OT DIIS     0.80E-01    7.9     0.00001514      -920.6662445698 -5.37E-06
     8 OT DIIS     0.80E-01    7.8     0.00000677      -920.6662458561 -1.29E-06

  *** SCF run converged in     8 steps ***


  Electronic density on regular grids:       -415.9999979220        0.0000020780
  Core density on regular grids:              415.9999999751       -0.0000000249
  Total charge density on r-space grids:        0.0000020531
  Total charge density g-space grids:           0.0000020531

  Overlap energy of the core charge distribution:               0.00000008700632
  Self energy of the core charge distribution:              -2388.37244906618980
  Core Hamiltonian energy:                                    696.46937347181324
  Hartree energy:                                             990.52334466918160
  Exchange-correlation energy:                               -219.28651501796111

  Total energy:                                              -920.66624585614977

 ENERGY| Total FORCE_EVAL ( QS ) energy [hartree]           -920.666246118728509

 OPT| **************************************************************************
 OPT| Step number                                                             25
 OPT| Optimization method                                                  LBFGS
 OPT| Total energy [hartree]                                     -920.6662461187
 OPT| Effective energy change [hartree]                            -0.0062468674
 OPT| Decrease in energy                                                     YES
 OPT| Used time [s]                                                       72.286
 OPT|
 OPT| Maximum step size                                             0.0589447750
 OPT| Convergence limit for maximum step size                       0.0030000000
 OPT| Maximum step size is converged                                          NO
 OPT|
 OPT| RMS step size                                                 0.0145062394
 OPT| Convergence limit for RMS step size                           0.0015000000
 OPT| RMS step size is converged                                              NO
 OPT|
 OPT| Maximum gradient                                              0.0140258283
 OPT| Convergence limit for maximum gradient                        0.0010000000
 OPT| Maximum gradient is converged                                           NO
 OPT|
 OPT| RMS gradient                                                  0.0032248076
 OPT| Convergence limit for RMS gradient                            0.0003000000
 OPT| RMS gradient is converged                                               NO
 OPT| **************************************************************************
 OPT| Estimated peak process memory after this step [MiB]                   1993

 --------------------------
 OPTIMIZATION STEP:     26
 --------------------------

 Number of electrons:                                                        416
 Number of occupied orbitals:                                                208
 Number of molecular orbitals:                                               208

 Number of orbital functions:                                                318
 Number of independent orbital functions:                                    318

 Extrapolation method: ASPC


 SCF WAVEFUNCTION OPTIMIZATION

  ----------------------------------- OT ---------------------------------------
  Minimizer      : DIIS                : direct inversion
                                         in the iterative subspace
                                         using   7 DIIS vectors
                                         safer DIIS on
  Preconditioner : FULL_SINGLE_INVERSE : inversion of 
                                         H + eS - 2*(Sc)(c^T*H*c+const)(Sc)^T
  Precond_solver : DEFAULT
  stepsize       :    0.08000000                  energy_gap     :    0.08000000
  eps_taylor     :   0.10000E-15                  max_taylor     :             4
  ----------------------------------- OT ---------------------------------------

  Step     Update method      Time    Convergence         Total energy    Change
  ------------------------------------------------------------------------------
     1 OT DIIS     0.80E-01    6.5     0.00129115      -920.6639912264 -9.21E+02
     2 OT DIIS     0.80E-01    7.8     0.00068879      -920.6701459000 -6.15E-03
     3 OT DIIS     0.80E-01    7.8     0.00039117      -920.6722786669 -2.13E-03
     4 OT DIIS     0.80E-01    7.8     0.00013541      -920.6730965000 -8.18E-04
     5 OT DIIS     0.80E-01    7.8     0.00005451      -920.6732051416 -1.09E-04
     6 OT DIIS     0.80E-01    7.8     0.00002320      -920.6732213842 -1.62E-05
     7 OT DIIS     0.80E-01    7.9     0.00001071      -920.6732241563 -2.77E-06
     8 OT DIIS     0.80E-01    7.9     0.00000425      -920.6732248505 -6.94E-07

  *** SCF run converged in     8 steps ***


  Electronic density on regular grids:       -415.9999976791        0.0000023209
  Core density on regular grids:              415.9999999752       -0.0000000248
  Total charge density on r-space grids:        0.0000022961
  Total charge density g-space grids:           0.0000022961

  Overlap energy of the core charge distribution:               0.00000008396880
  Self energy of the core charge distribution:              -2388.37244906618980
  Core Hamiltonian energy:                                    696.50936718140917
  Hartree energy:                                             990.48198743331170
  Exchange-correlation energy:                               -219.29213048297999

  Total energy:                                              -920.67322485048021

 ENERGY| Total FORCE_EVAL ( QS ) energy [hartree]           -920.673224958793071

 OPT| **************************************************************************
 OPT| Step number                                                             26
 OPT| Optimization method                                                  LBFGS
 OPT| Total energy [hartree]                                     -920.6732249588
 OPT| Effective energy change [hartree]                            -0.0069788401
 OPT| Decrease in energy                                                     YES
 OPT| Used time [s]                                                       72.338
 OPT|
 OPT| Maximum step size                                             0.0828981456
 OPT| Convergence limit for maximum step size                       0.0030000000
 OPT| Maximum step size is converged                                          NO
 OPT|
 OPT| RMS step size                                                 0.0212361498
 OPT| Convergence limit for RMS step size                           0.0015000000
 OPT| RMS step size is converged                                              NO
 OPT|
 OPT| Maximum gradient                                              0.0127440745
 OPT| Convergence limit for maximum gradient                        0.0010000000
 OPT| Maximum gradient is converged                                           NO
 OPT|
 OPT| RMS gradient                                                  0.0033604124
 OPT| Convergence limit for RMS gradient                            0.0003000000
 OPT| RMS gradient is converged                                               NO
 OPT| **************************************************************************
 OPT| Estimated peak process memory after this step [MiB]                   1993

 --------------------------
 OPTIMIZATION STEP:     27
 --------------------------

 Number of electrons:                                                        416
 Number of occupied orbitals:                                                208
 Number of molecular orbitals:                                               208

 Number of orbital functions:                                                318
 Number of independent orbital functions:                                    318

 Extrapolation method: ASPC


 SCF WAVEFUNCTION OPTIMIZATION

  ----------------------------------- OT ---------------------------------------
  Minimizer      : DIIS                : direct inversion
                                         in the iterative subspace
                                         using   7 DIIS vectors
                                         safer DIIS on
  Preconditioner : FULL_SINGLE_INVERSE : inversion of 
                                         H + eS - 2*(Sc)(c^T*H*c+const)(Sc)^T
  Precond_solver : DEFAULT
  stepsize       :    0.08000000                  energy_gap     :    0.08000000
  eps_taylor     :   0.10000E-15                  max_taylor     :             4
  ----------------------------------- OT ---------------------------------------

  Step     Update method      Time    Convergence         Total energy    Change
  ------------------------------------------------------------------------------
     1 OT DIIS     0.80E-01    6.5     0.00086865      -920.6747728089 -9.21E+02
     2 OT DIIS     0.80E-01    7.9     0.00049058      -920.6777151558 -2.94E-03
     3 OT DIIS     0.80E-01    7.8     0.00025982      -920.6789574481 -1.24E-03
     4 OT DIIS     0.80E-01    7.8     0.00008724      -920.6793246453 -3.67E-04
     5 OT DIIS     0.80E-01    7.8     0.00003666      -920.6793678617 -4.32E-05
     6 OT DIIS     0.80E-01    7.9     0.00001661      -920.6793750280 -7.17E-06
     7 OT DIIS     0.80E-01    7.8     0.00000667      -920.6793766264 -1.60E-06

  *** SCF run converged in     7 steps ***


  Electronic density on regular grids:       -415.9999975516        0.0000024484
  Core density on regular grids:              415.9999999751       -0.0000000249
  Total charge density on r-space grids:        0.0000024235
  Total charge density g-space grids:           0.0000024235

  Overlap energy of the core charge distribution:               0.00000008337918
  Self energy of the core charge distribution:              -2388.37244906618980
  Core Hamiltonian energy:                                    696.50208352471464
  Hartree energy:                                             990.47937296428040
  Exchange-correlation energy:                               -219.28838413260178

  Total energy:                                              -920.67937662641725

 ENERGY| Total FORCE_EVAL ( QS ) energy [hartree]           -920.679376880964128

 OPT| **************************************************************************
 OPT| Step number                                                             27
 OPT| Optimization method                                                  LBFGS
 OPT| Total energy [hartree]                                     -920.6793768810
 OPT| Effective energy change [hartree]                            -0.0061519222
 OPT| Decrease in energy                                                     YES
 OPT| Used time [s]                                                       64.367
 OPT|
 OPT| Maximum step size                                             0.0637848683
 OPT| Convergence limit for maximum step size                       0.0030000000
 OPT| Maximum step size is converged                                          NO
 OPT|
 OPT| RMS step size                                                 0.0184865909
 OPT| Convergence limit for RMS step size                           0.0015000000
 OPT| RMS step size is converged                                              NO
 OPT|
 OPT| Maximum gradient                                              0.0177217893
 OPT| Convergence limit for maximum gradient                        0.0010000000
 OPT| Maximum gradient is converged                                           NO
 OPT|
 OPT| RMS gradient                                                  0.0037332480
 OPT| Convergence limit for RMS gradient                            0.0003000000
 OPT| RMS gradient is converged                                               NO
 OPT| **************************************************************************
 OPT| Estimated peak process memory after this step [MiB]                   1993

 --------------------------
 OPTIMIZATION STEP:     28
 --------------------------

 Number of electrons:                                                        416
 Number of occupied orbitals:                                                208
 Number of molecular orbitals:                                               208

 Number of orbital functions:                                                318
 Number of independent orbital functions:                                    318

 Extrapolation method: ASPC


 SCF WAVEFUNCTION OPTIMIZATION

  ----------------------------------- OT ---------------------------------------
  Minimizer      : DIIS                : direct inversion
                                         in the iterative subspace
                                         using   7 DIIS vectors
                                         safer DIIS on
  Preconditioner : FULL_SINGLE_INVERSE : inversion of 
                                         H + eS - 2*(Sc)(c^T*H*c+const)(Sc)^T
  Precond_solver : DEFAULT
  stepsize       :    0.08000000                  energy_gap     :    0.08000000
  eps_taylor     :   0.10000E-15                  max_taylor     :             4
  ----------------------------------- OT ---------------------------------------

  Step     Update method      Time    Convergence         Total energy    Change
  ------------------------------------------------------------------------------
     1 OT DIIS     0.80E-01    6.5     0.00160080      -920.6670908218 -9.21E+02
     2 OT DIIS     0.80E-01    7.8     0.00095534      -920.6775611504 -1.05E-02
     3 OT DIIS     0.80E-01    7.8     0.00044067      -920.6830803356 -5.52E-03
     4 OT DIIS     0.80E-01    7.9     0.00015954      -920.6841787942 -1.10E-03
     5 OT DIIS     0.80E-01    7.9     0.00006392      -920.6843273818 -1.49E-04
     6 OT DIIS     0.80E-01    7.9     0.00002898      -920.6843502170 -2.28E-05
     7 OT DIIS     0.80E-01    7.8     0.00001197      -920.6843551090 -4.89E-06
     8 OT DIIS     0.80E-01    7.8     0.00000515      -920.6843559636 -8.55E-07

  *** SCF run converged in     8 steps ***


  Electronic density on regular grids:       -415.9999981120        0.0000018880
  Core density on regular grids:              415.9999999752       -0.0000000248
  Total charge density on r-space grids:        0.0000018632
  Total charge density g-space grids:           0.0000018632

  Overlap energy of the core charge distribution:               0.00000006836254
  Self energy of the core charge distribution:              -2388.37244906618980
  Core Hamiltonian energy:                                    696.56605237725853
  Hartree energy:                                             990.39969535288094
  Exchange-correlation energy:                               -219.27765469594320

  Total energy:                                              -920.68435596363088

 ENERGY| Total FORCE_EVAL ( QS ) energy [hartree]           -920.684356105479878

 OPT| **************************************************************************
 OPT| Step number                                                             28
 OPT| Optimization method                                                  LBFGS
 OPT| Total energy [hartree]                                     -920.6843561055
 OPT| Effective energy change [hartree]                            -0.0049792245
 OPT| Decrease in energy                                                     YES
 OPT| Used time [s]                                                       72.300
 OPT|
 OPT| Maximum step size                                             0.2055983637
 OPT| Convergence limit for maximum step size                       0.0030000000
 OPT| Maximum step size is converged                                          NO
 OPT|
 OPT| RMS step size                                                 0.0487597446
 OPT| Convergence limit for RMS step size                           0.0015000000
 OPT| RMS step size is converged                                              NO
 OPT|
 OPT| Maximum gradient                                              0.0324743428
 OPT| Convergence limit for maximum gradient                        0.0010000000
 OPT| Maximum gradient is converged                                           NO
 OPT|
 OPT| RMS gradient                                                  0.0060488237
 OPT| Convergence limit for RMS gradient                            0.0003000000
 OPT| RMS gradient is converged                                               NO
 OPT| **************************************************************************
 OPT| Estimated peak process memory after this step [MiB]                   1993

 --------------------------
 OPTIMIZATION STEP:     29
 --------------------------

 Number of electrons:                                                        416
 Number of occupied orbitals:                                                208
 Number of molecular orbitals:                                               208

 Number of orbital functions:                                                318
 Number of independent orbital functions:                                    318

 Extrapolation method: ASPC


 SCF WAVEFUNCTION OPTIMIZATION

  ----------------------------------- OT ---------------------------------------
  Minimizer      : DIIS                : direct inversion
                                         in the iterative subspace
                                         using   7 DIIS vectors
                                         safer DIIS on
  Preconditioner : FULL_SINGLE_INVERSE : inversion of 
                                         H + eS - 2*(Sc)(c^T*H*c+const)(Sc)^T
  Precond_solver : DEFAULT
  stepsize       :    0.08000000                  energy_gap     :    0.08000000
  eps_taylor     :   0.10000E-15                  max_taylor     :             4
  ----------------------------------- OT ---------------------------------------

  Step     Update method      Time    Convergence         Total energy    Change
  ------------------------------------------------------------------------------
     1 OT DIIS     0.80E-01    6.5     0.00289110      -920.6366100582 -9.21E+02
     2 OT DIIS     0.80E-01    7.8     0.00173209      -920.6706438348 -3.40E-02
     3 OT DIIS     0.80E-01    7.9     0.00081971      -920.6887803665 -1.81E-02
     4 OT DIIS     0.80E-01    7.9     0.00027634      -920.6931378824 -4.36E-03
     5 OT DIIS     0.80E-01    7.8     0.00011232      -920.6936157121 -4.78E-04
     6 OT DIIS     0.80E-01    7.8     0.00005102      -920.6936866134 -7.09E-05
     7 OT DIIS     0.80E-01    7.9     0.00002065      -920.6937030102 -1.64E-05
     8 OT DIIS     0.80E-01    7.8     0.00000854      -920.6937058526 -2.84E-06

  *** SCF run converged in     8 steps ***


  Electronic density on regular grids:       -415.9999975136        0.0000024864
  Core density on regular grids:              415.9999999753       -0.0000000247
  Total charge density on r-space grids:        0.0000024617
  Total charge density g-space grids:           0.0000024617

  Overlap energy of the core charge distribution:               0.00000007900644
  Self energy of the core charge distribution:              -2388.37244906618980
  Core Hamiltonian energy:                                    696.64443039886430
  Hartree energy:                                             990.34822751524189
  Exchange-correlation energy:                               -219.31391477956643

  Total energy:                                              -920.69370585264369

 ENERGY| Total FORCE_EVAL ( QS ) energy [hartree]           -920.693706300625763

 OPT| **************************************************************************
 OPT| Step number                                                             29
 OPT| Optimization method                                                  LBFGS
 OPT| Total energy [hartree]                                     -920.6937063006
 OPT| Effective energy change [hartree]                            -0.0093501951
 OPT| Decrease in energy                                                     YES
 OPT| Used time [s]                                                       72.255
 OPT|
 OPT| Maximum step size                                             0.0356612485
 OPT| Convergence limit for maximum step size                       0.0030000000
 OPT| Maximum step size is converged                                          NO
 OPT|
 OPT| RMS step size                                                 0.0098995159
 OPT| Convergence limit for RMS step size                           0.0015000000
 OPT| RMS step size is converged                                              NO
 OPT|
 OPT| Maximum gradient                                              0.0177070847
 OPT| Convergence limit for maximum gradient                        0.0010000000
 OPT| Maximum gradient is converged                                           NO
 OPT|
 OPT| RMS gradient                                                  0.0035434412
 OPT| Convergence limit for RMS gradient                            0.0003000000
 OPT| RMS gradient is converged                                               NO
 OPT| **************************************************************************
 OPT| Estimated peak process memory after this step [MiB]                   1993

 --------------------------
 OPTIMIZATION STEP:     30
 --------------------------

 Number of electrons:                                                        416
 Number of occupied orbitals:                                                208
 Number of molecular orbitals:                                               208

 Number of orbital functions:                                                318
 Number of independent orbital functions:                                    318

 Extrapolation method: ASPC


 SCF WAVEFUNCTION OPTIMIZATION

  ----------------------------------- OT ---------------------------------------
  Minimizer      : DIIS                : direct inversion
                                         in the iterative subspace
                                         using   7 DIIS vectors
                                         safer DIIS on
  Preconditioner : FULL_SINGLE_INVERSE : inversion of 
                                         H + eS - 2*(Sc)(c^T*H*c+const)(Sc)^T
  Precond_solver : DEFAULT
  stepsize       :    0.08000000                  energy_gap     :    0.08000000
  eps_taylor     :   0.10000E-15                  max_taylor     :             4
  ----------------------------------- OT ---------------------------------------

  Step     Update method      Time    Convergence         Total energy    Change
  ------------------------------------------------------------------------------
     1 OT DIIS     0.80E-01    6.5     0.00259010      -920.6552561568 -9.21E+02
     2 OT DIIS     0.80E-01    7.9     0.00157774      -920.6829104738 -2.77E-02
     3 OT DIIS     0.80E-01    7.8     0.00072511      -920.6982540907 -1.53E-02
     4 OT DIIS     0.80E-01    7.8     0.00024826      -920.7013433122 -3.09E-03
     5 OT DIIS     0.80E-01    7.8     0.00010065      -920.7016968900 -3.54E-04
     6 OT DIIS     0.80E-01    7.8     0.00004482      -920.7017512617 -5.44E-05
     7 OT DIIS     0.80E-01    7.9     0.00001830      -920.7017632661 -1.20E-05
     8 OT DIIS     0.80E-01    7.8     0.00000782      -920.7017653220 -2.06E-06

  *** SCF run converged in     8 steps ***


  Electronic density on regular grids:       -415.9999968013        0.0000031987
  Core density on regular grids:              415.9999999754       -0.0000000246
  Total charge density on r-space grids:        0.0000031741
  Total charge density g-space grids:           0.0000031741

  Overlap energy of the core charge distribution:               0.00000008640146
  Self energy of the core charge distribution:              -2388.37244906618980
  Core Hamiltonian energy:                                    696.78302870189543
  Hartree energy:                                             990.24299569034440
  Exchange-correlation energy:                               -219.35534073441369

  Total energy:                                              -920.70176532196206

 ENERGY| Total FORCE_EVAL ( QS ) energy [hartree]           -920.701765640804524

 OPT| **************************************************************************
 OPT| Step number                                                             30
 OPT| Optimization method                                                  LBFGS
 OPT| Total energy [hartree]                                     -920.7017656408
 OPT| Effective energy change [hartree]                            -0.0080593402
 OPT| Decrease in energy                                                     YES
 OPT| Used time [s]                                                       72.281
 OPT|
 OPT| Maximum step size                                             0.0948141044
 OPT| Convergence limit for maximum step size                       0.0030000000
 OPT| Maximum step size is converged                                          NO
 OPT|
 OPT| RMS step size                                                 0.0207833070
 OPT| Convergence limit for RMS step size                           0.0015000000
 OPT| RMS step size is converged                                              NO
 OPT|
 OPT| Maximum gradient                                              0.0116337990
 OPT| Convergence limit for maximum gradient                        0.0010000000
 OPT| Maximum gradient is converged                                           NO
 OPT|
 OPT| RMS gradient                                                  0.0033140564
 OPT| Convergence limit for RMS gradient                            0.0003000000
 OPT| RMS gradient is converged                                               NO
 OPT| **************************************************************************
 OPT| Estimated peak process memory after this step [MiB]                   1993

 --------------------------
 OPTIMIZATION STEP:     31
 --------------------------

 Number of electrons:                                                        416
 Number of occupied orbitals:                                                208
 Number of molecular orbitals:                                               208

 Number of orbital functions:                                                318
 Number of independent orbital functions:                                    318

 Extrapolation method: ASPC


 SCF WAVEFUNCTION OPTIMIZATION

  ----------------------------------- OT ---------------------------------------
  Minimizer      : DIIS                : direct inversion
                                         in the iterative subspace
                                         using   7 DIIS vectors
                                         safer DIIS on
  Preconditioner : FULL_SINGLE_INVERSE : inversion of 
                                         H + eS - 2*(Sc)(c^T*H*c+const)(Sc)^T
  Precond_solver : DEFAULT
  stepsize       :    0.08000000                  energy_gap     :    0.08000000
  eps_taylor     :   0.10000E-15                  max_taylor     :             4
  ----------------------------------- OT ---------------------------------------

  Step     Update method      Time    Convergence         Total energy    Change
  ------------------------------------------------------------------------------
     1 OT DIIS     0.80E-01    6.5     0.00183095      -920.6834257523 -9.21E+02
     2 OT DIIS     0.80E-01    7.8     0.00111660      -920.6972792773 -1.39E-02
     3 OT DIIS     0.80E-01    7.8     0.00048809      -920.7051786312 -7.90E-03
     4 OT DIIS     0.80E-01    7.8     0.00016404      -920.7067035318 -1.52E-03
     5 OT DIIS     0.80E-01    7.9     0.00006629      -920.7068700658 -1.67E-04
     6 OT DIIS     0.80E-01    7.8     0.00003073      -920.7068941372 -2.41E-05
     7 OT DIIS     0.80E-01    7.9     0.00001179      -920.7069001172 -5.98E-06
     8 OT DIIS     0.80E-01    7.9     0.00000503      -920.7069010261 -9.09E-07

  *** SCF run converged in     8 steps ***


  Electronic density on regular grids:       -415.9999962376        0.0000037624
  Core density on regular grids:              415.9999999757       -0.0000000243
  Total charge density on r-space grids:        0.0000037381
  Total charge density g-space grids:           0.0000037381

  Overlap energy of the core charge distribution:               0.00000008444466
  Self energy of the core charge distribution:              -2388.37244906618980
  Core Hamiltonian energy:                                    696.75371223051059
  Hartree energy:                                             990.25882595979363
  Exchange-correlation energy:                               -219.34699023468454

  Total energy:                                              -920.70690102612525

 ENERGY| Total FORCE_EVAL ( QS ) energy [hartree]           -920.706901177608984

 OPT| **************************************************************************
 OPT| Step number                                                             31
 OPT| Optimization method                                                  LBFGS
 OPT| Total energy [hartree]                                     -920.7069011776
 OPT| Effective energy change [hartree]                            -0.0051355368
 OPT| Decrease in energy                                                     YES
 OPT| Used time [s]                                                       72.258
 OPT|
 OPT| Maximum step size                                             0.0517948806
 OPT| Convergence limit for maximum step size                       0.0030000000
 OPT| Maximum step size is converged                                          NO
 OPT|
 OPT| RMS step size                                                 0.0152667685
 OPT| Convergence limit for RMS step size                           0.0015000000
 OPT| RMS step size is converged                                              NO
 OPT|
 OPT| Maximum gradient                                              0.0126418925
 OPT| Convergence limit for maximum gradient                        0.0010000000
 OPT| Maximum gradient is converged                                           NO
 OPT|
 OPT| RMS gradient                                                  0.0031295582
 OPT| Convergence limit for RMS gradient                            0.0003000000
 OPT| RMS gradient is converged                                               NO
 OPT| **************************************************************************
 OPT| Estimated peak process memory after this step [MiB]                   1993

 --------------------------
 OPTIMIZATION STEP:     32
 --------------------------

 Number of electrons:                                                        416
 Number of occupied orbitals:                                                208
 Number of molecular orbitals:                                               208

 Number of orbital functions:                                                318
 Number of independent orbital functions:                                    318

 Extrapolation method: ASPC


 SCF WAVEFUNCTION OPTIMIZATION

  ----------------------------------- OT ---------------------------------------
  Minimizer      : DIIS                : direct inversion
                                         in the iterative subspace
                                         using   7 DIIS vectors
                                         safer DIIS on
  Preconditioner : FULL_SINGLE_INVERSE : inversion of 
                                         H + eS - 2*(Sc)(c^T*H*c+const)(Sc)^T
  Precond_solver : DEFAULT
  stepsize       :    0.08000000                  energy_gap     :    0.08000000
  eps_taylor     :   0.10000E-15                  max_taylor     :             4
  ----------------------------------- OT ---------------------------------------

  Step     Update method      Time    Convergence         Total energy    Change
  ------------------------------------------------------------------------------
     1 OT DIIS     0.80E-01    6.5     0.00234310      -920.6716007603 -9.21E+02
     2 OT DIIS     0.80E-01    7.8     0.00143630      -920.6943369712 -2.27E-02
     3 OT DIIS     0.80E-01    7.9     0.00062949      -920.7073232048 -1.30E-02
     4 OT DIIS     0.80E-01    7.8     0.00020780      -920.7097956543 -2.47E-03
     5 OT DIIS     0.80E-01    7.9     0.00008443      -920.7100433963 -2.48E-04
     6 OT DIIS     0.80E-01    7.9     0.00003793      -920.7100811579 -3.78E-05
     7 OT DIIS     0.80E-01    7.8     0.00001500      -920.7100898940 -8.74E-06
     8 OT DIIS     0.80E-01    7.8     0.00000644      -920.7100912559 -1.36E-06

  *** SCF run converged in     8 steps ***


  Electronic density on regular grids:       -415.9999974676        0.0000025324
  Core density on regular grids:              415.9999999752       -0.0000000248
  Total charge density on r-space grids:        0.0000025076
  Total charge density g-space grids:           0.0000025076

  Overlap energy of the core charge distribution:               0.00000007915423
  Self energy of the core charge distribution:              -2388.37244906618980
  Core Hamiltonian energy:                                    696.78565763085669
  Hartree energy:                                             990.22113625886630
  Exchange-correlation energy:                               -219.34443615860815

  Total energy:                                              -920.71009125592059

 ENERGY| Total FORCE_EVAL ( QS ) energy [hartree]           -920.710091471146939

 OPT| **************************************************************************
 OPT| Step number                                                             32
 OPT| Optimization method                                                  LBFGS
 OPT| Total energy [hartree]                                     -920.7100914711
 OPT| Effective energy change [hartree]                            -0.0031902935
 OPT| Decrease in energy                                                     YES
 OPT| Used time [s]                                                       72.290
 OPT|
 OPT| Maximum step size                                             0.2252588095
 OPT| Convergence limit for maximum step size                       0.0030000000
 OPT| Maximum step size is converged                                          NO
 OPT|
 OPT| RMS step size                                                 0.0465235270
 OPT| Convergence limit for RMS step size                           0.0015000000
 OPT| RMS step size is converged                                              NO
 OPT|
 OPT| Maximum gradient                                              0.0317924518
 OPT| Convergence limit for maximum gradient                        0.0010000000
 OPT| Maximum gradient is converged                                           NO
 OPT|
 OPT| RMS gradient                                                  0.0053443464
 OPT| Convergence limit for RMS gradient                            0.0003000000
 OPT| RMS gradient is converged                                               NO
 OPT| **************************************************************************
 OPT| Estimated peak process memory after this step [MiB]                   1993

 --------------------------
 OPTIMIZATION STEP:     33
 --------------------------

 Number of electrons:                                                        416
 Number of occupied orbitals:                                                208
 Number of molecular orbitals:                                               208

 Number of orbital functions:                                                318
 Number of independent orbital functions:                                    318

 Extrapolation method: ASPC


 SCF WAVEFUNCTION OPTIMIZATION

  ----------------------------------- OT ---------------------------------------
  Minimizer      : DIIS                : direct inversion
                                         in the iterative subspace
                                         using   7 DIIS vectors
                                         safer DIIS on
  Preconditioner : FULL_SINGLE_INVERSE : inversion of 
                                         H + eS - 2*(Sc)(c^T*H*c+const)(Sc)^T
  Precond_solver : DEFAULT
  stepsize       :    0.08000000                  energy_gap     :    0.08000000
  eps_taylor     :   0.10000E-15                  max_taylor     :             4
  ----------------------------------- OT ---------------------------------------

  Step     Update method      Time    Convergence         Total energy    Change
  ------------------------------------------------------------------------------
     1 OT DIIS     0.80E-01    6.5     0.00369993      -920.6245661602 -9.21E+02
     2 OT DIIS     0.80E-01    7.9     0.00220915      -920.6798417881 -5.53E-02
     3 OT DIIS     0.80E-01    7.9     0.00109623      -920.7082895932 -2.84E-02
     4 OT DIIS     0.80E-01    7.9     0.00032797      -920.7160567607 -7.77E-03
     5 OT DIIS     0.80E-01    7.8     0.00012776      -920.7167382917 -6.82E-04
     6 OT DIIS     0.80E-01    7.8     0.00005931      -920.7168238159 -8.55E-05
     7 OT DIIS     0.80E-01    7.9     0.00002458      -920.7168448059 -2.10E-05
     8 OT DIIS     0.80E-01    7.8     0.00000955      -920.7168487914 -3.99E-06

  *** SCF run converged in     8 steps ***


  Electronic density on regular grids:       -415.9999969109        0.0000030891
  Core density on regular grids:              415.9999999752       -0.0000000248
  Total charge density on r-space grids:        0.0000030644
  Total charge density g-space grids:           0.0000030644

  Overlap energy of the core charge distribution:               0.00000007209233
  Self energy of the core charge distribution:              -2388.37244906618980
  Core Hamiltonian energy:                                    696.75592732819939
  Hartree energy:                                             990.23681930566420
  Exchange-correlation energy:                               -219.33714643114254

  Total energy:                                              -920.71684879137615

 ENERGY| Total FORCE_EVAL ( QS ) energy [hartree]           -920.716849339816918

 OPT| **************************************************************************
 OPT| Step number                                                             33
 OPT| Optimization method                                                  LBFGS
 OPT| Total energy [hartree]                                     -920.7168493398
 OPT| Effective energy change [hartree]                            -0.0067578687
 OPT| Decrease in energy                                                     YES
 OPT| Used time [s]                                                       72.312
 OPT|
 OPT| Maximum step size                                             0.0371032596
 OPT| Convergence limit for maximum step size                       0.0030000000
 OPT| Maximum step size is converged                                          NO
 OPT|
 OPT| RMS step size                                                 0.0103466113
 OPT| Convergence limit for RMS step size                           0.0015000000
 OPT| RMS step size is converged                                              NO
 OPT|
 OPT| Maximum gradient                                              0.0104412480
 OPT| Convergence limit for maximum gradient                        0.0010000000
 OPT| Maximum gradient is converged                                           NO
 OPT|
 OPT| RMS gradient                                                  0.0028223057
 OPT| Convergence limit for RMS gradient                            0.0003000000
 OPT| RMS gradient is converged                                               NO
 OPT| **************************************************************************
 OPT| Estimated peak process memory after this step [MiB]                   1993

 --------------------------
 OPTIMIZATION STEP:     34
 --------------------------

 Number of electrons:                                                        416
 Number of occupied orbitals:                                                208
 Number of molecular orbitals:                                               208

 Number of orbital functions:                                                318
 Number of independent orbital functions:                                    318

 Extrapolation method: ASPC


 SCF WAVEFUNCTION OPTIMIZATION

  ----------------------------------- OT ---------------------------------------
  Minimizer      : DIIS                : direct inversion
                                         in the iterative subspace
                                         using   7 DIIS vectors
                                         safer DIIS on
  Preconditioner : FULL_SINGLE_INVERSE : inversion of 
                                         H + eS - 2*(Sc)(c^T*H*c+const)(Sc)^T
  Precond_solver : DEFAULT
  stepsize       :    0.08000000                  energy_gap     :    0.08000000
  eps_taylor     :   0.10000E-15                  max_taylor     :             4
  ----------------------------------- OT ---------------------------------------

  Step     Update method      Time    Convergence         Total energy    Change
  ------------------------------------------------------------------------------
     1 OT DIIS     0.80E-01    6.5     0.00301265      -920.6572482360 -9.21E+02
     2 OT DIIS     0.80E-01    7.8     0.00184172      -920.6949845155 -3.77E-02
     3 OT DIIS     0.80E-01    7.8     0.00076789      -920.7166724782 -2.17E-02
     4 OT DIIS     0.80E-01    7.9     0.00027508      -920.7199913614 -3.32E-03
     5 OT DIIS     0.80E-01    7.8     0.00010409      -920.7203863998 -3.95E-04
     6 OT DIIS     0.80E-01    7.8     0.00004621      -920.7204426413 -5.62E-05
     7 OT DIIS     0.80E-01    7.8     0.00001931      -920.7204548583 -1.22E-05
     8 OT DIIS     0.80E-01    7.9     0.00000796      -920.7204570705 -2.21E-06

  *** SCF run converged in     8 steps ***


  Electronic density on regular grids:       -415.9999966737        0.0000033263
  Core density on regular grids:              415.9999999752       -0.0000000248
  Total charge density on r-space grids:        0.0000033015
  Total charge density g-space grids:           0.0000033015

  Overlap energy of the core charge distribution:               0.00000007488934
  Self energy of the core charge distribution:              -2388.37244906618980
  Core Hamiltonian energy:                                    696.75512381222063
  Hartree energy:                                             990.23811525357632
  Exchange-correlation energy:                               -219.34124714495931

  Total energy:                                              -920.72045707046311

 ENERGY| Total FORCE_EVAL ( QS ) energy [hartree]           -920.720457396828010

 OPT| **************************************************************************
 OPT| Step number                                                             34
 OPT| Optimization method                                                  LBFGS
 OPT| Total energy [hartree]                                     -920.7204573968
 OPT| Effective energy change [hartree]                            -0.0036080570
 OPT| Decrease in energy                                                     YES
 OPT| Used time [s]                                                       72.283
 OPT|
 OPT| Maximum step size                                             0.0340460642
 OPT| Convergence limit for maximum step size                       0.0030000000
 OPT| Maximum step size is converged                                          NO
 OPT|
 OPT| RMS step size                                                 0.0076946691
 OPT| Convergence limit for RMS step size                           0.0015000000
 OPT| RMS step size is converged                                              NO
 OPT|
 OPT| Maximum gradient                                              0.0119293957
 OPT| Convergence limit for maximum gradient                        0.0010000000
 OPT| Maximum gradient is converged                                           NO
 OPT|
 OPT| RMS gradient                                                  0.0022601596
 OPT| Convergence limit for RMS gradient                            0.0003000000
 OPT| RMS gradient is converged                                               NO
 OPT| **************************************************************************
 OPT| Estimated peak process memory after this step [MiB]                   1993

 --------------------------
 OPTIMIZATION STEP:     35
 --------------------------

 Number of electrons:                                                        416
 Number of occupied orbitals:                                                208
 Number of molecular orbitals:                                               208

 Number of orbital functions:                                                318
 Number of independent orbital functions:                                    318

 Extrapolation method: ASPC


 SCF WAVEFUNCTION OPTIMIZATION

  ----------------------------------- OT ---------------------------------------
  Minimizer      : DIIS                : direct inversion
                                         in the iterative subspace
                                         using   7 DIIS vectors
                                         safer DIIS on
  Preconditioner : FULL_SINGLE_INVERSE : inversion of 
                                         H + eS - 2*(Sc)(c^T*H*c+const)(Sc)^T
  Precond_solver : DEFAULT
  stepsize       :    0.08000000                  energy_gap     :    0.08000000
  eps_taylor     :   0.10000E-15                  max_taylor     :             4
  ----------------------------------- OT ---------------------------------------

  Step     Update method      Time    Convergence         Total energy    Change
  ------------------------------------------------------------------------------
     1 OT DIIS     0.80E-01    6.5     0.00096456      -920.7200419546 -9.21E+02
     2 OT DIIS     0.80E-01    7.8     0.00053891      -920.7236156953 -3.57E-03
     3 OT DIIS     0.80E-01    7.8     0.00029201      -920.7251079755 -1.49E-03
     4 OT DIIS     0.80E-01    7.8     0.00009769      -920.7256589410 -5.51E-04
     5 OT DIIS     0.80E-01    7.9     0.00003713      -920.7257201430 -6.12E-05
     6 OT DIIS     0.80E-01    7.8     0.00001604      -920.7257276845 -7.54E-06
     7 OT DIIS     0.80E-01    7.9     0.00000663      -920.7257292561 -1.57E-06

  *** SCF run converged in     7 steps ***


  Electronic density on regular grids:       -415.9999962586        0.0000037414
  Core density on regular grids:              415.9999999748       -0.0000000252
  Total charge density on r-space grids:        0.0000037163
  Total charge density g-space grids:           0.0000037163

  Overlap energy of the core charge distribution:               0.00000007371918
  Self energy of the core charge distribution:              -2388.37244906618980
  Core Hamiltonian energy:                                    696.72069427902318
  Hartree energy:                                             990.25988175386851
  Exchange-correlation energy:                               -219.33385629651227

  Total energy:                                              -920.72572925609143

 ENERGY| Total FORCE_EVAL ( QS ) energy [hartree]           -920.725729547676451

 OPT| **************************************************************************
 OPT| Step number                                                             35
 OPT| Optimization method                                                  LBFGS
 OPT| Total energy [hartree]                                     -920.7257295477
 OPT| Effective energy change [hartree]                            -0.0052721508
 OPT| Decrease in energy                                                     YES
 OPT| Used time [s]                                                       64.373
 OPT|
 OPT| Maximum step size                                             0.1473066572
 OPT| Convergence limit for maximum step size                       0.0030000000
 OPT| Maximum step size is converged                                          NO
 OPT|
 OPT| RMS step size                                                 0.0247156227
 OPT| Convergence limit for RMS step size                           0.0015000000
 OPT| RMS step size is converged                                              NO
 OPT|
 OPT| Maximum gradient                                              0.0092672848
 OPT| Convergence limit for maximum gradient                        0.0010000000
 OPT| Maximum gradient is converged                                           NO
 OPT|
 OPT| RMS gradient                                                  0.0025188582
 OPT| Convergence limit for RMS gradient                            0.0003000000
 OPT| RMS gradient is converged                                               NO
 OPT| **************************************************************************
 OPT| Estimated peak process memory after this step [MiB]                   1993

 --------------------------
 OPTIMIZATION STEP:     36
 --------------------------

 Number of electrons:                                                        416
 Number of occupied orbitals:                                                208
 Number of molecular orbitals:                                               208

 Number of orbital functions:                                                318
 Number of independent orbital functions:                                    318

 Extrapolation method: ASPC


 SCF WAVEFUNCTION OPTIMIZATION

  ----------------------------------- OT ---------------------------------------
  Minimizer      : DIIS                : direct inversion
                                         in the iterative subspace
                                         using   7 DIIS vectors
                                         safer DIIS on
  Preconditioner : FULL_SINGLE_INVERSE : inversion of 
                                         H + eS - 2*(Sc)(c^T*H*c+const)(Sc)^T
  Precond_solver : DEFAULT
  stepsize       :    0.08000000                  energy_gap     :    0.08000000
  eps_taylor     :   0.10000E-15                  max_taylor     :             4
  ----------------------------------- OT ---------------------------------------

  Step     Update method      Time    Convergence         Total energy    Change
  ------------------------------------------------------------------------------
     1 OT DIIS     0.80E-01    6.5     0.00068039      -920.7251339064 -9.21E+02
     2 OT DIIS     0.80E-01    7.8     0.00035930      -920.7268004934 -1.67E-03
     3 OT DIIS     0.80E-01    7.8     0.00020865      -920.7273639228 -5.63E-04
     4 OT DIIS     0.80E-01    7.8     0.00007344      -920.7276280900 -2.64E-04
     5 OT DIIS     0.80E-01    7.8     0.00003034      -920.7276619959 -3.39E-05
     6 OT DIIS     0.80E-01    7.9     0.00001256      -920.7276673657 -5.37E-06
     7 OT DIIS     0.80E-01    7.8     0.00000571      -920.7276682753 -9.10E-07

  *** SCF run converged in     7 steps ***


  Electronic density on regular grids:       -415.9999965455        0.0000034545
  Core density on regular grids:              415.9999999752       -0.0000000248
  Total charge density on r-space grids:        0.0000034297
  Total charge density g-space grids:           0.0000034297

  Overlap energy of the core charge distribution:               0.00000008858228
  Self energy of the core charge distribution:              -2388.37244906618980
  Core Hamiltonian energy:                                    696.66000572234668
  Hartree energy:                                             990.31768119746755
  Exchange-correlation energy:                               -219.33290621745988

  Total energy:                                              -920.72766827525334

 ENERGY| Total FORCE_EVAL ( QS ) energy [hartree]           -920.727668476898998

 OPT| **************************************************************************
 OPT| Step number                                                             36
 OPT| Optimization method                                                  LBFGS
 OPT| Total energy [hartree]                                     -920.7276684769
 OPT| Effective energy change [hartree]                            -0.0019389292
 OPT| Decrease in energy                                                     YES
 OPT| Used time [s]                                                       64.318
 OPT|
 OPT| Maximum step size                                             0.2058986068
 OPT| Convergence limit for maximum step size                       0.0030000000
 OPT| Maximum step size is converged                                          NO
 OPT|
 OPT| RMS step size                                                 0.0345793202
 OPT| Convergence limit for RMS step size                           0.0015000000
 OPT| RMS step size is converged                                              NO
 OPT|
 OPT| Maximum gradient                                              0.0217855854
 OPT| Convergence limit for maximum gradient                        0.0010000000
 OPT| Maximum gradient is converged                                           NO
 OPT|
 OPT| RMS gradient                                                  0.0046976056
 OPT| Convergence limit for RMS gradient                            0.0003000000
 OPT| RMS gradient is converged                                               NO
 OPT| **************************************************************************
 OPT| Estimated peak process memory after this step [MiB]                   1993

 --------------------------
 OPTIMIZATION STEP:     37
 --------------------------

 Number of electrons:                                                        416
 Number of occupied orbitals:                                                208
 Number of molecular orbitals:                                               208

 Number of orbital functions:                                                318
 Number of independent orbital functions:                                    318

 Extrapolation method: ASPC


 SCF WAVEFUNCTION OPTIMIZATION

  ----------------------------------- OT ---------------------------------------
  Minimizer      : DIIS                : direct inversion
                                         in the iterative subspace
                                         using   7 DIIS vectors
                                         safer DIIS on
  Preconditioner : FULL_SINGLE_INVERSE : inversion of 
                                         H + eS - 2*(Sc)(c^T*H*c+const)(Sc)^T
  Precond_solver : DEFAULT
  stepsize       :    0.08000000                  energy_gap     :    0.08000000
  eps_taylor     :   0.10000E-15                  max_taylor     :             4
  ----------------------------------- OT ---------------------------------------

  Step     Update method      Time    Convergence         Total energy    Change
  ------------------------------------------------------------------------------
     1 OT DIIS     0.80E-01    6.5     0.00211350      -920.7019317880 -9.21E+02
     2 OT DIIS     0.80E-01    7.8     0.00127205      -920.7200486881 -1.81E-02
     3 OT DIIS     0.80E-01    7.8     0.00063150      -920.7295099338 -9.46E-03
     4 OT DIIS     0.80E-01    7.8     0.00018943      -920.7320386887 -2.53E-03
     5 OT DIIS     0.80E-01    7.9     0.00007653      -920.7322515134 -2.13E-04
     6 OT DIIS     0.80E-01    7.8     0.00003549      -920.7322810012 -2.95E-05
     7 OT DIIS     0.80E-01    7.8     0.00001498      -920.7322885872 -7.59E-06
     8 OT DIIS     0.80E-01    7.8     0.00000664      -920.7322900098 -1.42E-06

  *** SCF run converged in     8 steps ***


  Electronic density on regular grids:       -415.9999962647        0.0000037353
  Core density on regular grids:              415.9999999750       -0.0000000250
  Total charge density on r-space grids:        0.0000037104
  Total charge density g-space grids:           0.0000037104

  Overlap energy of the core charge distribution:               0.00000008071761
  Self energy of the core charge distribution:              -2388.37244906618980
  Core Hamiltonian energy:                                    696.71382023789852
  Hartree energy:                                             990.27028286922200
  Exchange-correlation energy:                               -219.34394413141649

  Total energy:                                              -920.73229000976812

 ENERGY| Total FORCE_EVAL ( QS ) energy [hartree]           -920.732290274622301

 OPT| **************************************************************************
 OPT| Step number                                                             37
 OPT| Optimization method                                                  LBFGS
 OPT| Total energy [hartree]                                     -920.7322902746
 OPT| Effective energy change [hartree]                            -0.0046217977
 OPT| Decrease in energy                                                     YES
 OPT| Used time [s]                                                       72.167
 OPT|
 OPT| Maximum step size                                             0.0453307384
 OPT| Convergence limit for maximum step size                       0.0030000000
 OPT| Maximum step size is converged                                          NO
 OPT|
 OPT| RMS step size                                                 0.0109564848
 OPT| Convergence limit for RMS step size                           0.0015000000
 OPT| RMS step size is converged                                              NO
 OPT|
 OPT| Maximum gradient                                              0.0084981701
 OPT| Convergence limit for maximum gradient                        0.0010000000
 OPT| Maximum gradient is converged                                           NO
 OPT|
 OPT| RMS gradient                                                  0.0021758027
 OPT| Convergence limit for RMS gradient                            0.0003000000
 OPT| RMS gradient is converged                                               NO
 OPT| **************************************************************************
 OPT| Estimated peak process memory after this step [MiB]                   1993

 --------------------------
 OPTIMIZATION STEP:     38
 --------------------------

 Number of electrons:                                                        416
 Number of occupied orbitals:                                                208
 Number of molecular orbitals:                                               208

 Number of orbital functions:                                                318
 Number of independent orbital functions:                                    318

 Extrapolation method: ASPC


 SCF WAVEFUNCTION OPTIMIZATION

  ----------------------------------- OT ---------------------------------------
  Minimizer      : DIIS                : direct inversion
                                         in the iterative subspace
                                         using   7 DIIS vectors
                                         safer DIIS on
  Preconditioner : FULL_SINGLE_INVERSE : inversion of 
                                         H + eS - 2*(Sc)(c^T*H*c+const)(Sc)^T
  Precond_solver : DEFAULT
  stepsize       :    0.08000000                  energy_gap     :    0.08000000
  eps_taylor     :   0.10000E-15                  max_taylor     :             4
  ----------------------------------- OT ---------------------------------------

  Step     Update method      Time    Convergence         Total energy    Change
  ------------------------------------------------------------------------------
     1 OT DIIS     0.80E-01    6.5     0.00240648      -920.6928767894 -9.21E+02
     2 OT DIIS     0.80E-01    7.9     0.00148903      -920.7171303760 -2.43E-02
     3 OT DIIS     0.80E-01    7.8     0.00059046      -920.7318285923 -1.47E-02
     4 OT DIIS     0.80E-01    7.8     0.00020472      -920.7339233661 -2.09E-03
     5 OT DIIS     0.80E-01    7.8     0.00007719      -920.7341550111 -2.32E-04
     6 OT DIIS     0.80E-01    7.8     0.00003726      -920.7341857027 -3.07E-05
     7 OT DIIS     0.80E-01    7.8     0.00001523      -920.7341939577 -8.26E-06
     8 OT DIIS     0.80E-01    7.9     0.00000687      -920.7341953533 -1.40E-06

  *** SCF run converged in     8 steps ***


  Electronic density on regular grids:       -415.9999959899        0.0000040101
  Core density on regular grids:              415.9999999751       -0.0000000249
  Total charge density on r-space grids:        0.0000039853
  Total charge density g-space grids:           0.0000039853

  Overlap energy of the core charge distribution:               0.00000007514507
  Self energy of the core charge distribution:              -2388.37244906618980
  Core Hamiltonian energy:                                    696.73791209173135
  Hartree energy:                                             990.24537293330877
  Exchange-correlation energy:                               -219.34503138730446

  Total energy:                                              -920.73419535330913

 ENERGY| Total FORCE_EVAL ( QS ) energy [hartree]           -920.734195633415425

 OPT| **************************************************************************
 OPT| Step number                                                             38
 OPT| Optimization method                                                  LBFGS
 OPT| Total energy [hartree]                                     -920.7341956334
 OPT| Effective energy change [hartree]                            -0.0019053588
 OPT| Decrease in energy                                                     YES
 OPT| Used time [s]                                                       72.313
 OPT|
 OPT| Maximum step size                                             0.0251173597
 OPT| Convergence limit for maximum step size                       0.0030000000
 OPT| Maximum step size is converged                                          NO
 OPT|
 OPT| RMS step size                                                 0.0054727210
 OPT| Convergence limit for RMS step size                           0.0015000000
 OPT| RMS step size is converged                                              NO
 OPT|
 OPT| Maximum gradient                                              0.0064938941
 OPT| Convergence limit for maximum gradient                        0.0010000000
 OPT| Maximum gradient is converged                                           NO
 OPT|
 OPT| RMS gradient                                                  0.0015187134
 OPT| Convergence limit for RMS gradient                            0.0003000000
 OPT| RMS gradient is converged                                               NO
 OPT| **************************************************************************
 OPT| Estimated peak process memory after this step [MiB]                   1993

 --------------------------
 OPTIMIZATION STEP:     39
 --------------------------

 Number of electrons:                                                        416
 Number of occupied orbitals:                                                208
 Number of molecular orbitals:                                               208

 Number of orbital functions:                                                318
 Number of independent orbital functions:                                    318

 Extrapolation method: ASPC


 SCF WAVEFUNCTION OPTIMIZATION

  ----------------------------------- OT ---------------------------------------
  Minimizer      : DIIS                : direct inversion
                                         in the iterative subspace
                                         using   7 DIIS vectors
                                         safer DIIS on
  Preconditioner : FULL_SINGLE_INVERSE : inversion of 
                                         H + eS - 2*(Sc)(c^T*H*c+const)(Sc)^T
  Precond_solver : DEFAULT
  stepsize       :    0.08000000                  energy_gap     :    0.08000000
  eps_taylor     :   0.10000E-15                  max_taylor     :             4
  ----------------------------------- OT ---------------------------------------

  Step     Update method      Time    Convergence         Total energy    Change
  ------------------------------------------------------------------------------
     1 OT DIIS     0.80E-01    6.5     0.00107839      -920.7280379113 -9.21E+02
     2 OT DIIS     0.80E-01    7.8     0.00064846      -920.7327650266 -4.73E-03
     3 OT DIIS     0.80E-01    7.8     0.00031077      -920.7352857494 -2.52E-03
     4 OT DIIS     0.80E-01    7.8     0.00009170      -920.7359408533 -6.55E-04
     5 OT DIIS     0.80E-01    7.8     0.00003600      -920.7359922238 -5.14E-05
     6 OT DIIS     0.80E-01    7.8     0.00001656      -920.7359989274 -6.70E-06
     7 OT DIIS     0.80E-01    7.8     0.00000688      -920.7360005979 -1.67E-06

  *** SCF run converged in     7 steps ***


  Electronic density on regular grids:       -415.9999956102        0.0000043898
  Core density on regular grids:              415.9999999753       -0.0000000247
  Total charge density on r-space grids:        0.0000043652
  Total charge density g-space grids:           0.0000043652

  Overlap energy of the core charge distribution:               0.00000007485322
  Self energy of the core charge distribution:              -2388.37244906618980
  Core Hamiltonian energy:                                    696.78095947527049
  Hartree energy:                                             990.21142123723871
  Exchange-correlation energy:                               -219.35593231907956

  Total energy:                                              -920.73600059790692

 ENERGY| Total FORCE_EVAL ( QS ) energy [hartree]           -920.736000910791176

 OPT| **************************************************************************
 OPT| Step number                                                             39
 OPT| Optimization method                                                  LBFGS
 OPT| Total energy [hartree]                                     -920.7360009108
 OPT| Effective energy change [hartree]                            -0.0018052774
 OPT| Decrease in energy                                                     YES
 OPT| Used time [s]                                                       64.408
 OPT|
 OPT| Maximum step size                                             0.0561421929
 OPT| Convergence limit for maximum step size                       0.0030000000
 OPT| Maximum step size is converged                                          NO
 OPT|
 OPT| RMS step size                                                 0.0106930985
 OPT| Convergence limit for RMS step size                           0.0015000000
 OPT| RMS step size is converged                                              NO
 OPT|
 OPT| Maximum gradient                                              0.0080769755
 OPT| Convergence limit for maximum gradient                        0.0010000000
 OPT| Maximum gradient is converged                                           NO
 OPT|
 OPT| RMS gradient                                                  0.0017154267
 OPT| Convergence limit for RMS gradient                            0.0003000000
 OPT| RMS gradient is converged                                               NO
 OPT| **************************************************************************
 OPT| Estimated peak process memory after this step [MiB]                   1993

 --------------------------
 OPTIMIZATION STEP:     40
 --------------------------

 Number of electrons:                                                        416
 Number of occupied orbitals:                                                208
 Number of molecular orbitals:                                               208

 Number of orbital functions:                                                318
 Number of independent orbital functions:                                    318

 Extrapolation method: ASPC


 SCF WAVEFUNCTION OPTIMIZATION

  ----------------------------------- OT ---------------------------------------
  Minimizer      : DIIS                : direct inversion
                                         in the iterative subspace
                                         using   7 DIIS vectors
                                         safer DIIS on
  Preconditioner : FULL_SINGLE_INVERSE : inversion of 
                                         H + eS - 2*(Sc)(c^T*H*c+const)(Sc)^T
  Precond_solver : DEFAULT
  stepsize       :    0.08000000                  energy_gap     :    0.08000000
  eps_taylor     :   0.10000E-15                  max_taylor     :             4
  ----------------------------------- OT ---------------------------------------

  Step     Update method      Time    Convergence         Total energy    Change
  ------------------------------------------------------------------------------
     1 OT DIIS     0.80E-01    6.5     0.00034907      -920.7367572218 -9.21E+02
     2 OT DIIS     0.80E-01    7.8     0.00020174      -920.7372439882 -4.87E-04
     3 OT DIIS     0.80E-01    7.8     0.00009776      -920.7374752008 -2.31E-04
     4 OT DIIS     0.80E-01    7.9     0.00003463      -920.7375322170 -5.70E-05
     5 OT DIIS     0.80E-01    7.9     0.00001239      -920.7375397558 -7.54E-06
     6 OT DIIS     0.80E-01    7.9     0.00000529      -920.7375406294 -8.74E-07

  *** SCF run converged in     6 steps ***


  Electronic density on regular grids:       -415.9999955000        0.0000045000
  Core density on regular grids:              415.9999999752       -0.0000000248
  Total charge density on r-space grids:        0.0000044752
  Total charge density g-space grids:           0.0000044752

  Overlap energy of the core charge distribution:               0.00000007555522
  Self energy of the core charge distribution:              -2388.37244906618980
  Core Hamiltonian energy:                                    696.84413094457523
  Hartree energy:                                             990.16214372856871
  Exchange-correlation energy:                               -219.37136631186573

  Total energy:                                              -920.73754062935620

 ENERGY| Total FORCE_EVAL ( QS ) energy [hartree]           -920.737540790540834

 OPT| **************************************************************************
 OPT| Step number                                                             40
 OPT| Optimization method                                                  LBFGS
 OPT| Total energy [hartree]                                     -920.7375407905
 OPT| Effective energy change [hartree]                            -0.0015398797
 OPT| Decrease in energy                                                     YES
 OPT| Used time [s]                                                       56.588
 OPT|
 OPT| Maximum step size                                             0.0762485828
 OPT| Convergence limit for maximum step size                       0.0030000000
 OPT| Maximum step size is converged                                          NO
 OPT|
 OPT| RMS step size                                                 0.0163677569
 OPT| Convergence limit for RMS step size                           0.0015000000
 OPT| RMS step size is converged                                              NO
 OPT|
 OPT| Maximum gradient                                              0.0082906230
 OPT| Convergence limit for maximum gradient                        0.0010000000
 OPT| Maximum gradient is converged                                           NO
 OPT|
 OPT| RMS gradient                                                  0.0024051455
 OPT| Convergence limit for RMS gradient                            0.0003000000
 OPT| RMS gradient is converged                                               NO
 OPT| **************************************************************************
 OPT| Estimated peak process memory after this step [MiB]                   1993

 --------------------------
 OPTIMIZATION STEP:     41
 --------------------------

 Number of electrons:                                                        416
 Number of occupied orbitals:                                                208
 Number of molecular orbitals:                                               208

 Number of orbital functions:                                                318
 Number of independent orbital functions:                                    318

 Extrapolation method: ASPC


 SCF WAVEFUNCTION OPTIMIZATION

  ----------------------------------- OT ---------------------------------------
  Minimizer      : DIIS                : direct inversion
                                         in the iterative subspace
                                         using   7 DIIS vectors
                                         safer DIIS on
  Preconditioner : FULL_SINGLE_INVERSE : inversion of 
                                         H + eS - 2*(Sc)(c^T*H*c+const)(Sc)^T
  Precond_solver : DEFAULT
  stepsize       :    0.08000000                  energy_gap     :    0.08000000
  eps_taylor     :   0.10000E-15                  max_taylor     :             4
  ----------------------------------- OT ---------------------------------------

  Step     Update method      Time    Convergence         Total energy    Change
  ------------------------------------------------------------------------------
     1 OT DIIS     0.80E-01    6.5     0.00052337      -920.7375609768 -9.21E+02
     2 OT DIIS     0.80E-01    7.8     0.00029102      -920.7386307347 -1.07E-03
     3 OT DIIS     0.80E-01    7.9     0.00014389      -920.7390881058 -4.57E-04
     4 OT DIIS     0.80E-01    7.8     0.00005218      -920.7392118715 -1.24E-04
     5 OT DIIS     0.80E-01    7.9     0.00001928      -920.7392291401 -1.73E-05
     6 OT DIIS     0.80E-01    7.9     0.00000833      -920.7392313390 -2.20E-06

  *** SCF run converged in     6 steps ***


  Electronic density on regular grids:       -415.9999953837        0.0000046163
  Core density on regular grids:              415.9999999751       -0.0000000249
  Total charge density on r-space grids:        0.0000045914
  Total charge density g-space grids:           0.0000045914

  Overlap energy of the core charge distribution:               0.00000007351852
  Self energy of the core charge distribution:              -2388.37244906618980
  Core Hamiltonian energy:                                    696.83660060903776
  Hartree energy:                                             990.16663989471476
  Exchange-correlation energy:                               -219.37002285004007

  Total energy:                                              -920.73923133895880

 ENERGY| Total FORCE_EVAL ( QS ) energy [hartree]           -920.739231777876512

 OPT| **************************************************************************
 OPT| Step number                                                             41
 OPT| Optimization method                                                  LBFGS
 OPT| Total energy [hartree]                                     -920.7392317779
 OPT| Effective energy change [hartree]                            -0.0016909873
 OPT| Decrease in energy                                                     YES
 OPT| Used time [s]                                                       56.661
 OPT|
 OPT| Maximum step size                                             0.0799893755
 OPT| Convergence limit for maximum step size                       0.0030000000
 OPT| Maximum step size is converged                                          NO
 OPT|
 OPT| RMS step size                                                 0.0136148955
 OPT| Convergence limit for RMS step size                           0.0015000000
 OPT| RMS step size is converged                                              NO
 OPT|
 OPT| Maximum gradient                                              0.0094608104
 OPT| Convergence limit for maximum gradient                        0.0010000000
 OPT| Maximum gradient is converged                                           NO
 OPT|
 OPT| RMS gradient                                                  0.0019029158
 OPT| Convergence limit for RMS gradient                            0.0003000000
 OPT| RMS gradient is converged                                               NO
 OPT| **************************************************************************
 OPT| Estimated peak process memory after this step [MiB]                   1993

 --------------------------
 OPTIMIZATION STEP:     42
 --------------------------

 Number of electrons:                                                        416
 Number of occupied orbitals:                                                208
 Number of molecular orbitals:                                               208

 Number of orbital functions:                                                318
 Number of independent orbital functions:                                    318

 Extrapolation method: ASPC


 SCF WAVEFUNCTION OPTIMIZATION

  ----------------------------------- OT ---------------------------------------
  Minimizer      : DIIS                : direct inversion
                                         in the iterative subspace
                                         using   7 DIIS vectors
                                         safer DIIS on
  Preconditioner : FULL_SINGLE_INVERSE : inversion of 
                                         H + eS - 2*(Sc)(c^T*H*c+const)(Sc)^T
  Precond_solver : DEFAULT
  stepsize       :    0.08000000                  energy_gap     :    0.08000000
  eps_taylor     :   0.10000E-15                  max_taylor     :             4
  ----------------------------------- OT ---------------------------------------

  Step     Update method      Time    Convergence         Total energy    Change
  ------------------------------------------------------------------------------
     1 OT DIIS     0.80E-01    6.5     0.00049863      -920.7392757694 -9.21E+02
     2 OT DIIS     0.80E-01    7.8     0.00027350      -920.7402354445 -9.60E-04
     3 OT DIIS     0.80E-01    7.8     0.00013949      -920.7406304798 -3.95E-04
     4 OT DIIS     0.80E-01    7.9     0.00005107      -920.7407495017 -1.19E-04
     5 OT DIIS     0.80E-01    7.9     0.00001910      -920.7407662861 -1.68E-05
     6 OT DIIS     0.80E-01    7.9     0.00000811      -920.7407684038 -2.12E-06

  *** SCF run converged in     6 steps ***


  Electronic density on regular grids:       -415.9999950916        0.0000049084
  Core density on regular grids:              415.9999999751       -0.0000000249
  Total charge density on r-space grids:        0.0000048835
  Total charge density g-space grids:           0.0000048835

  Overlap energy of the core charge distribution:               0.00000007894403
  Self energy of the core charge distribution:              -2388.37244906618980
  Core Hamiltonian energy:                                    696.84993810284323
  Hartree energy:                                             990.16156551298707
  Exchange-correlation energy:                               -219.37982303241751

  Total energy:                                              -920.74076840383282

 ENERGY| Total FORCE_EVAL ( QS ) energy [hartree]           -920.740768820484163

 OPT| **************************************************************************
 OPT| Step number                                                             42
 OPT| Optimization method                                                  LBFGS
 OPT| Total energy [hartree]                                     -920.7407688205
 OPT| Effective energy change [hartree]                            -0.0015370426
 OPT| Decrease in energy                                                     YES
 OPT| Used time [s]                                                       56.621
 OPT|
 OPT| Maximum step size                                             0.0324269361
 OPT| Convergence limit for maximum step size                       0.0030000000
 OPT| Maximum step size is converged                                          NO
 OPT|
 OPT| RMS step size                                                 0.0065214142
 OPT| Convergence limit for RMS step size                           0.0015000000
 OPT| RMS step size is converged                                              NO
 OPT|
 OPT| Maximum gradient                                              0.0077569234
 OPT| Convergence limit for maximum gradient                        0.0010000000
 OPT| Maximum gradient is converged                                           NO
 OPT|
 OPT| RMS gradient                                                  0.0016899965
 OPT| Convergence limit for RMS gradient                            0.0003000000
 OPT| RMS gradient is converged                                               NO
 OPT| **************************************************************************
 OPT| Estimated peak process memory after this step [MiB]                   1993

 --------------------------
 OPTIMIZATION STEP:     43
 --------------------------

 Number of electrons:                                                        416
 Number of occupied orbitals:                                                208
 Number of molecular orbitals:                                               208

 Number of orbital functions:                                                318
 Number of independent orbital functions:                                    318

 Extrapolation method: ASPC


 SCF WAVEFUNCTION OPTIMIZATION

  ----------------------------------- OT ---------------------------------------
  Minimizer      : DIIS                : direct inversion
                                         in the iterative subspace
                                         using   7 DIIS vectors
                                         safer DIIS on
  Preconditioner : FULL_SINGLE_INVERSE : inversion of 
                                         H + eS - 2*(Sc)(c^T*H*c+const)(Sc)^T
  Precond_solver : DEFAULT
  stepsize       :    0.08000000                  energy_gap     :    0.08000000
  eps_taylor     :   0.10000E-15                  max_taylor     :             4
  ----------------------------------- OT ---------------------------------------

  Step     Update method      Time    Convergence         Total energy    Change
  ------------------------------------------------------------------------------
     1 OT DIIS     0.80E-01    6.5     0.00055039      -920.7399089889 -9.21E+02
     2 OT DIIS     0.80E-01    7.8     0.00033093      -920.7411482546 -1.24E-03
     3 OT DIIS     0.80E-01    7.9     0.00015037      -920.7418220958 -6.74E-04
     4 OT DIIS     0.80E-01    7.9     0.00004897      -920.7419717803 -1.50E-04
     5 OT DIIS     0.80E-01    7.9     0.00001814      -920.7419860074 -1.42E-05
     6 OT DIIS     0.80E-01    7.8     0.00000807      -920.7419877636 -1.76E-06

  *** SCF run converged in     6 steps ***


  Electronic density on regular grids:       -415.9999947044        0.0000052956
  Core density on regular grids:              415.9999999751       -0.0000000249
  Total charge density on r-space grids:        0.0000052707
  Total charge density g-space grids:           0.0000052707

  Overlap energy of the core charge distribution:               0.00000007968690
  Self energy of the core charge distribution:              -2388.37244906618980
  Core Hamiltonian energy:                                    696.85713012739336
  Hartree energy:                                             990.15615482234989
  Exchange-correlation energy:                               -219.38282372684890

  Total energy:                                              -920.74198776360879

 ENERGY| Total FORCE_EVAL ( QS ) energy [hartree]           -920.741988166898750

 OPT| **************************************************************************
 OPT| Step number                                                             43
 OPT| Optimization method                                                  LBFGS
 OPT| Total energy [hartree]                                     -920.7419881669
 OPT| Effective energy change [hartree]                            -0.0012193464
 OPT| Decrease in energy                                                     YES
 OPT| Used time [s]                                                       56.599
 OPT|
 OPT| Maximum step size                                             0.0583867290
 OPT| Convergence limit for maximum step size                       0.0030000000
 OPT| Maximum step size is converged                                          NO
 OPT|
 OPT| RMS step size                                                 0.0103713931
 OPT| Convergence limit for RMS step size                           0.0015000000
 OPT| RMS step size is converged                                              NO
 OPT|
 OPT| Maximum gradient                                              0.0062877280
 OPT| Convergence limit for maximum gradient                        0.0010000000
 OPT| Maximum gradient is converged                                           NO
 OPT|
 OPT| RMS gradient                                                  0.0016961953
 OPT| Convergence limit for RMS gradient                            0.0003000000
 OPT| RMS gradient is converged                                               NO
 OPT| **************************************************************************
 OPT| Estimated peak process memory after this step [MiB]                   1993

 --------------------------
 OPTIMIZATION STEP:     44
 --------------------------

 Number of electrons:                                                        416
 Number of occupied orbitals:                                                208
 Number of molecular orbitals:                                               208

 Number of orbital functions:                                                318
 Number of independent orbital functions:                                    318

 Extrapolation method: ASPC


 SCF WAVEFUNCTION OPTIMIZATION

  ----------------------------------- OT ---------------------------------------
  Minimizer      : DIIS                : direct inversion
                                         in the iterative subspace
                                         using   7 DIIS vectors
                                         safer DIIS on
  Preconditioner : FULL_SINGLE_INVERSE : inversion of 
                                         H + eS - 2*(Sc)(c^T*H*c+const)(Sc)^T
  Precond_solver : DEFAULT
  stepsize       :    0.08000000                  energy_gap     :    0.08000000
  eps_taylor     :   0.10000E-15                  max_taylor     :             4
  ----------------------------------- OT ---------------------------------------

  Step     Update method      Time    Convergence         Total energy    Change
  ------------------------------------------------------------------------------
     1 OT DIIS     0.80E-01    6.5     0.00053071      -920.7416432002 -9.21E+02
     2 OT DIIS     0.80E-01    7.9     0.00031636      -920.7427815214 -1.14E-03
     3 OT DIIS     0.80E-01    7.9     0.00015328      -920.7433731367 -5.92E-04
     4 OT DIIS     0.80E-01    7.9     0.00004404      -920.7435339900 -1.61E-04
     5 OT DIIS     0.80E-01    7.9     0.00001696      -920.7435457478 -1.18E-05
     6 OT DIIS     0.80E-01    7.8     0.00000790      -920.7435472362 -1.49E-06

  *** SCF run converged in     6 steps ***


  Electronic density on regular grids:       -415.9999944249        0.0000055751
  Core density on regular grids:              415.9999999750       -0.0000000250
  Total charge density on r-space grids:        0.0000055501
  Total charge density g-space grids:           0.0000055501

  Overlap energy of the core charge distribution:               0.00000007901938
  Self energy of the core charge distribution:              -2388.37244906618980
  Core Hamiltonian energy:                                    696.88556355899073
  Hartree energy:                                             990.13106353964156
  Exchange-correlation energy:                               -219.38772534766008

  Total energy:                                              -920.74354723619842

 ENERGY| Total FORCE_EVAL ( QS ) energy [hartree]           -920.743547617340369

 OPT| **************************************************************************
 OPT| Step number                                                             44
 OPT| Optimization method                                                  LBFGS
 OPT| Total energy [hartree]                                     -920.7435476173
 OPT| Effective energy change [hartree]                            -0.0015594504
 OPT| Decrease in energy                                                     YES
 OPT| Used time [s]                                                       56.616
 OPT|
 OPT| Maximum step size                                             0.0708174510
 OPT| Convergence limit for maximum step size                       0.0030000000
 OPT| Maximum step size is converged                                          NO
 OPT|
 OPT| RMS step size                                                 0.0115403414
 OPT| Convergence limit for RMS step size                           0.0015000000
 OPT| RMS step size is converged                                              NO
 OPT|
 OPT| Maximum gradient                                              0.0066970281
 OPT| Convergence limit for maximum gradient                        0.0010000000
 OPT| Maximum gradient is converged                                           NO
 OPT|
 OPT| RMS gradient                                                  0.0016704826
 OPT| Convergence limit for RMS gradient                            0.0003000000
 OPT| RMS gradient is converged                                               NO
 OPT| **************************************************************************
 OPT| Estimated peak process memory after this step [MiB]                   1993

 --------------------------
 OPTIMIZATION STEP:     45
 --------------------------

 Number of electrons:                                                        416
 Number of occupied orbitals:                                                208
 Number of molecular orbitals:                                               208

 Number of orbital functions:                                                318
 Number of independent orbital functions:                                    318

 Extrapolation method: ASPC


 SCF WAVEFUNCTION OPTIMIZATION

  ----------------------------------- OT ---------------------------------------
  Minimizer      : DIIS                : direct inversion
                                         in the iterative subspace
                                         using   7 DIIS vectors
                                         safer DIIS on
  Preconditioner : FULL_SINGLE_INVERSE : inversion of 
                                         H + eS - 2*(Sc)(c^T*H*c+const)(Sc)^T
  Precond_solver : DEFAULT
  stepsize       :    0.08000000                  energy_gap     :    0.08000000
  eps_taylor     :   0.10000E-15                  max_taylor     :             4
  ----------------------------------- OT ---------------------------------------

  Step     Update method      Time    Convergence         Total energy    Change
  ------------------------------------------------------------------------------
     1 OT DIIS     0.80E-01    6.5     0.00043349      -920.7435310629 -9.21E+02
     2 OT DIIS     0.80E-01    7.9     0.00023733      -920.7442409207 -7.10E-04
     3 OT DIIS     0.80E-01    7.8     0.00012956      -920.7445195086 -2.79E-04
     4 OT DIIS     0.80E-01    7.9     0.00004147      -920.7446277530 -1.08E-04
     5 OT DIIS     0.80E-01    7.9     0.00001607      -920.7446386630 -1.09E-05
     6 OT DIIS     0.80E-01    7.8     0.00000698      -920.7446401228 -1.46E-06

  *** SCF run converged in     6 steps ***


  Electronic density on regular grids:       -415.9999942566        0.0000057434
  Core density on regular grids:              415.9999999751       -0.0000000249
  Total charge density on r-space grids:        0.0000057185
  Total charge density g-space grids:           0.0000057185

  Overlap energy of the core charge distribution:               0.00000007864088
  Self energy of the core charge distribution:              -2388.37244906618980
  Core Hamiltonian energy:                                    696.92482928386960
  Hartree energy:                                             990.09894528989537
  Exchange-correlation energy:                               -219.39596570900699

  Total energy:                                              -920.74464012279088

 ENERGY| Total FORCE_EVAL ( QS ) energy [hartree]           -920.744640433564200

 OPT| **************************************************************************
 OPT| Step number                                                             45
 OPT| Optimization method                                                  LBFGS
 OPT| Total energy [hartree]                                     -920.7446404336
 OPT| Effective energy change [hartree]                            -0.0010928162
 OPT| Decrease in energy                                                     YES
 OPT| Used time [s]                                                       56.604
 OPT|
 OPT| Maximum step size                                             0.0503501960
 OPT| Convergence limit for maximum step size                       0.0030000000
 OPT| Maximum step size is converged                                          NO
 OPT|
 OPT| RMS step size                                                 0.0085659679
 OPT| Convergence limit for RMS step size                           0.0015000000
 OPT| RMS step size is converged                                              NO
 OPT|
 OPT| Maximum gradient                                              0.0069452190
 OPT| Convergence limit for maximum gradient                        0.0010000000
 OPT| Maximum gradient is converged                                           NO
 OPT|
 OPT| RMS gradient                                                  0.0018716621
 OPT| Convergence limit for RMS gradient                            0.0003000000
 OPT| RMS gradient is converged                                               NO
 OPT| **************************************************************************
 OPT| Estimated peak process memory after this step [MiB]                   1993

 --------------------------
 OPTIMIZATION STEP:     46
 --------------------------

 Number of electrons:                                                        416
 Number of occupied orbitals:                                                208
 Number of molecular orbitals:                                               208

 Number of orbital functions:                                                318
 Number of independent orbital functions:                                    318

 Extrapolation method: ASPC


 SCF WAVEFUNCTION OPTIMIZATION

  ----------------------------------- OT ---------------------------------------
  Minimizer      : DIIS                : direct inversion
                                         in the iterative subspace
                                         using   7 DIIS vectors
                                         safer DIIS on
  Preconditioner : FULL_SINGLE_INVERSE : inversion of 
                                         H + eS - 2*(Sc)(c^T*H*c+const)(Sc)^T
  Precond_solver : DEFAULT
  stepsize       :    0.08000000                  energy_gap     :    0.08000000
  eps_taylor     :   0.10000E-15                  max_taylor     :             4
  ----------------------------------- OT ---------------------------------------

  Step     Update method      Time    Convergence         Total energy    Change
  ------------------------------------------------------------------------------
     1 OT DIIS     0.80E-01    6.5     0.00041178      -920.7447052779 -9.21E+02
     2 OT DIIS     0.80E-01    7.8     0.00021711      -920.7453424837 -6.37E-04
     3 OT DIIS     0.80E-01    7.8     0.00011243      -920.7455732298 -2.31E-04
     4 OT DIIS     0.80E-01    7.9     0.00004137      -920.7456458757 -7.26E-05
     5 OT DIIS     0.80E-01    7.9     0.00001669      -920.7456566835 -1.08E-05
     6 OT DIIS     0.80E-01    9.0     0.00000697      -920.7456583248 -1.64E-06

  *** SCF run converged in     6 steps ***


  Electronic density on regular grids:       -415.9999940402        0.0000059598
  Core density on regular grids:              415.9999999751       -0.0000000249
  Total charge density on r-space grids:        0.0000059349
  Total charge density g-space grids:           0.0000059349

  Overlap energy of the core charge distribution:               0.00000007745126
  Self energy of the core charge distribution:              -2388.37244906618980
  Core Hamiltonian energy:                                    696.92749013043397
  Hartree energy:                                             990.09563229052139
  Exchange-correlation energy:                               -219.39633175702954

  Total energy:                                              -920.74565832481289

 ENERGY| Total FORCE_EVAL ( QS ) energy [hartree]           -920.745658623533359

 OPT| **************************************************************************
 OPT| Step number                                                             46
 OPT| Optimization method                                                  LBFGS
 OPT| Total energy [hartree]                                     -920.7456586235
 OPT| Effective energy change [hartree]                            -0.0010181900
 OPT| Decrease in energy                                                     YES
 OPT| Used time [s]                                                       60.752
 OPT|
 OPT| Maximum step size                                             0.0187232276
 OPT| Convergence limit for maximum step size                       0.0030000000
 OPT| Maximum step size is converged                                          NO
 OPT|
 OPT| RMS step size                                                 0.0036362517
 OPT| Convergence limit for RMS step size                           0.0015000000
 OPT| RMS step size is converged                                              NO
 OPT|
 OPT| Maximum gradient                                              0.0045182349
 OPT| Convergence limit for maximum gradient                        0.0010000000
 OPT| Maximum gradient is converged                                           NO
 OPT|
 OPT| RMS gradient                                                  0.0011208052
 OPT| Convergence limit for RMS gradient                            0.0003000000
 OPT| RMS gradient is converged                                               NO
 OPT| **************************************************************************
 OPT| Estimated peak process memory after this step [MiB]                   1993

 --------------------------
 OPTIMIZATION STEP:     47
 --------------------------

 Number of electrons:                                                        416
 Number of occupied orbitals:                                                208
 Number of molecular orbitals:                                               208

 Number of orbital functions:                                                318
 Number of independent orbital functions:                                    318

 Extrapolation method: ASPC


 SCF WAVEFUNCTION OPTIMIZATION

  ----------------------------------- OT ---------------------------------------
  Minimizer      : DIIS                : direct inversion
                                         in the iterative subspace
                                         using   7 DIIS vectors
                                         safer DIIS on
  Preconditioner : FULL_SINGLE_INVERSE : inversion of 
                                         H + eS - 2*(Sc)(c^T*H*c+const)(Sc)^T
  Precond_solver : DEFAULT
  stepsize       :    0.08000000                  energy_gap     :    0.08000000
  eps_taylor     :   0.10000E-15                  max_taylor     :             4
  ----------------------------------- OT ---------------------------------------

  Step     Update method      Time    Convergence         Total energy    Change
  ------------------------------------------------------------------------------
     1 OT DIIS     0.80E-01    6.8     0.00044745      -920.7452359901 -9.21E+02
     2 OT DIIS     0.80E-01    7.8     0.00026177      -920.7460543506 -8.18E-04
     3 OT DIIS     0.80E-01    7.8     0.00010248      -920.7464820772 -4.28E-04
     4 OT DIIS     0.80E-01    7.9     0.00003942      -920.7465442387 -6.22E-05
     5 OT DIIS     0.80E-01    7.8     0.00001502      -920.7465533678 -9.13E-06
     6 OT DIIS     0.80E-01    7.8     0.00000659      -920.7465546260 -1.26E-06

  *** SCF run converged in     6 steps ***


  Electronic density on regular grids:       -415.9999936722        0.0000063278
  Core density on regular grids:              415.9999999751       -0.0000000249
  Total charge density on r-space grids:        0.0000063029
  Total charge density g-space grids:           0.0000063029

  Overlap energy of the core charge distribution:               0.00000007677385
  Self energy of the core charge distribution:              -2388.37244906618980
  Core Hamiltonian energy:                                    696.93872088113994
  Hartree energy:                                             990.08626690326457
  Exchange-correlation energy:                               -219.39909342101654

  Total energy:                                              -920.74655462602823

 ENERGY| Total FORCE_EVAL ( QS ) energy [hartree]           -920.746554892674567

 OPT| **************************************************************************
 OPT| Step number                                                             47
 OPT| Optimization method                                                  LBFGS
 OPT| Total energy [hartree]                                     -920.7465548927
 OPT| Effective energy change [hartree]                            -0.0008962691
 OPT| Decrease in energy                                                     YES
 OPT| Used time [s]                                                       57.180
 OPT|
 OPT| Maximum step size                                             0.0468028219
 OPT| Convergence limit for maximum step size                       0.0030000000
 OPT| Maximum step size is converged                                          NO
 OPT|
 OPT| RMS step size                                                 0.0072239633
 OPT| Convergence limit for RMS step size                           0.0015000000
 OPT| RMS step size is converged                                              NO
 OPT|
 OPT| Maximum gradient                                              0.0053365331
 OPT| Convergence limit for maximum gradient                        0.0010000000
 OPT| Maximum gradient is converged                                           NO
 OPT|
 OPT| RMS gradient                                                  0.0012024091
 OPT| Convergence limit for RMS gradient                            0.0003000000
 OPT| RMS gradient is converged                                               NO
 OPT| **************************************************************************
 OPT| Estimated peak process memory after this step [MiB]                   1993

 --------------------------
 OPTIMIZATION STEP:     48
 --------------------------

 Number of electrons:                                                        416
 Number of occupied orbitals:                                                208
 Number of molecular orbitals:                                               208

 Number of orbital functions:                                                318
 Number of independent orbital functions:                                    318

 Extrapolation method: ASPC


 SCF WAVEFUNCTION OPTIMIZATION

  ----------------------------------- OT ---------------------------------------
  Minimizer      : DIIS                : direct inversion
                                         in the iterative subspace
                                         using   7 DIIS vectors
                                         safer DIIS on
  Preconditioner : FULL_SINGLE_INVERSE : inversion of 
                                         H + eS - 2*(Sc)(c^T*H*c+const)(Sc)^T
  Precond_solver : DEFAULT
  stepsize       :    0.08000000                  energy_gap     :    0.08000000
  eps_taylor     :   0.10000E-15                  max_taylor     :             4
  ----------------------------------- OT ---------------------------------------

  Step     Update method      Time    Convergence         Total energy    Change
  ------------------------------------------------------------------------------
     1 OT DIIS     0.80E-01    6.5     0.00029047      -920.7469069888 -9.21E+02
     2 OT DIIS     0.80E-01    7.8     0.00017233      -920.7472521336 -3.45E-04
     3 OT DIIS     0.80E-01    7.8     0.00007330      -920.7474353695 -1.83E-04
     4 OT DIIS     0.80E-01    7.8     0.00002569      -920.7474675377 -3.22E-05
     5 OT DIIS     0.80E-01    7.8     0.00000930      -920.7474715780 -4.04E-06

  *** SCF run converged in     5 steps ***


  Electronic density on regular grids:       -415.9999933788        0.0000066212
  Core density on regular grids:              415.9999999751       -0.0000000249
  Total charge density on r-space grids:        0.0000065963
  Total charge density g-space grids:           0.0000065963

  Overlap energy of the core charge distribution:               0.00000007916105
  Self energy of the core charge distribution:              -2388.37244906618980
  Core Hamiltonian energy:                                    696.96777293351442
  Hartree energy:                                             990.06563710886087
  Exchange-correlation energy:                               -219.40843263335313

  Total energy:                                              -920.74747157800653

 ENERGY| Total FORCE_EVAL ( QS ) energy [hartree]           -920.747472075865517

 OPT| **************************************************************************
 OPT| Step number                                                             48
 OPT| Optimization method                                                  LBFGS
 OPT| Total energy [hartree]                                     -920.7474720759
 OPT| Effective energy change [hartree]                            -0.0009171832
 OPT| Decrease in energy                                                     YES
 OPT| Used time [s]                                                       48.740
 OPT|
 OPT| Maximum step size                                             0.0674958044
 OPT| Convergence limit for maximum step size                       0.0030000000
 OPT| Maximum step size is converged                                          NO
 OPT|
 OPT| RMS step size                                                 0.0100496597
 OPT| Convergence limit for RMS step size                           0.0015000000
 OPT| RMS step size is converged                                              NO
 OPT|
 OPT| Maximum gradient                                              0.0075341787
 OPT| Convergence limit for maximum gradient                        0.0010000000
 OPT| Maximum gradient is converged                                           NO
 OPT|
 OPT| RMS gradient                                                  0.0014945656
 OPT| Convergence limit for RMS gradient                            0.0003000000
 OPT| RMS gradient is converged                                               NO
 OPT| **************************************************************************
 OPT| Estimated peak process memory after this step [MiB]                   1993

 --------------------------
 OPTIMIZATION STEP:     49
 --------------------------

 Number of electrons:                                                        416
 Number of occupied orbitals:                                                208
 Number of molecular orbitals:                                               208

 Number of orbital functions:                                                318
 Number of independent orbital functions:                                    318

 Extrapolation method: ASPC


 SCF WAVEFUNCTION OPTIMIZATION

  ----------------------------------- OT ---------------------------------------
  Minimizer      : DIIS                : direct inversion
                                         in the iterative subspace
                                         using   7 DIIS vectors
                                         safer DIIS on
  Preconditioner : FULL_SINGLE_INVERSE : inversion of 
                                         H + eS - 2*(Sc)(c^T*H*c+const)(Sc)^T
  Precond_solver : DEFAULT
  stepsize       :    0.08000000                  energy_gap     :    0.08000000
  eps_taylor     :   0.10000E-15                  max_taylor     :             4
  ----------------------------------- OT ---------------------------------------

  Step     Update method      Time    Convergence         Total energy    Change
  ------------------------------------------------------------------------------
     1 OT DIIS     0.80E-01    6.5     0.00027332      -920.7478734443 -9.21E+02
     2 OT DIIS     0.80E-01    7.8     0.00014955      -920.7481614629 -2.88E-04
     3 OT DIIS     0.80E-01    7.8     0.00007587      -920.7482769305 -1.15E-04
     4 OT DIIS     0.80E-01    7.8     0.00002715      -920.7483098771 -3.29E-05
     5 OT DIIS     0.80E-01    7.8     0.00000997      -920.7483146088 -4.73E-06

  *** SCF run converged in     5 steps ***


  Electronic density on regular grids:       -415.9999933322        0.0000066678
  Core density on regular grids:              415.9999999751       -0.0000000249
  Total charge density on r-space grids:        0.0000066429
  Total charge density g-space grids:           0.0000066429

  Overlap energy of the core charge distribution:               0.00000007787013
  Self energy of the core charge distribution:              -2388.37244906618980
  Core Hamiltonian energy:                                    696.96430184970927
  Hartree energy:                                             990.06583896509187
  Exchange-correlation energy:                               -219.40600643531502

  Total energy:                                              -920.74831460883365

 ENERGY| Total FORCE_EVAL ( QS ) energy [hartree]           -920.748315210083206

 OPT| **************************************************************************
 OPT| Step number                                                             49
 OPT| Optimization method                                                  LBFGS
 OPT| Total energy [hartree]                                     -920.7483152101
 OPT| Effective energy change [hartree]                            -0.0008431342
 OPT| Decrease in energy                                                     YES
 OPT| Used time [s]                                                       48.702
 OPT|
 OPT| Maximum step size                                             0.0678478319
 OPT| Convergence limit for maximum step size                       0.0030000000
 OPT| Maximum step size is converged                                          NO
 OPT|
 OPT| RMS step size                                                 0.0099617509
 OPT| Convergence limit for RMS step size                           0.0015000000
 OPT| RMS step size is converged                                              NO
 OPT|
 OPT| Maximum gradient                                              0.0059121157
 OPT| Convergence limit for maximum gradient                        0.0010000000
 OPT| Maximum gradient is converged                                           NO
 OPT|
 OPT| RMS gradient                                                  0.0014695728
 OPT| Convergence limit for RMS gradient                            0.0003000000
 OPT| RMS gradient is converged                                               NO
 OPT| **************************************************************************
 OPT| Estimated peak process memory after this step [MiB]                   1993

 --------------------------
 OPTIMIZATION STEP:     50
 --------------------------

 Number of electrons:                                                        416
 Number of occupied orbitals:                                                208
 Number of molecular orbitals:                                               208

 Number of orbital functions:                                                318
 Number of independent orbital functions:                                    318

 Extrapolation method: ASPC


 SCF WAVEFUNCTION OPTIMIZATION

  ----------------------------------- OT ---------------------------------------
  Minimizer      : DIIS                : direct inversion
                                         in the iterative subspace
                                         using   7 DIIS vectors
                                         safer DIIS on
  Preconditioner : FULL_SINGLE_INVERSE : inversion of 
                                         H + eS - 2*(Sc)(c^T*H*c+const)(Sc)^T
  Precond_solver : DEFAULT
  stepsize       :    0.08000000                  energy_gap     :    0.08000000
  eps_taylor     :   0.10000E-15                  max_taylor     :             4
  ----------------------------------- OT ---------------------------------------

  Step     Update method      Time    Convergence         Total energy    Change
  ------------------------------------------------------------------------------
     1 OT DIIS     0.80E-01    6.5     0.00033204      -920.7485558016 -9.21E+02
     2 OT DIIS     0.80E-01    7.8     0.00018853      -920.7489925357 -4.37E-04
     3 OT DIIS     0.80E-01    7.8     0.00009050      -920.7491880310 -1.95E-04
     4 OT DIIS     0.80E-01    7.8     0.00003061      -920.7492340328 -4.60E-05
     5 OT DIIS     0.80E-01    7.8     0.00001049      -920.7492400439 -6.01E-06
     6 OT DIIS     0.80E-01    7.8     0.00000435      -920.7492407162 -6.72E-07

  *** SCF run converged in     6 steps ***


  Electronic density on regular grids:       -415.9999933521        0.0000066479
  Core density on regular grids:              415.9999999752       -0.0000000248
  Total charge density on r-space grids:        0.0000066231
  Total charge density g-space grids:           0.0000066231

  Overlap energy of the core charge distribution:               0.00000007920829
  Self energy of the core charge distribution:              -2388.37244906618980
  Core Hamiltonian energy:                                    696.95592411284690
  Hartree energy:                                             990.07262441877879
  Exchange-correlation energy:                               -219.40534026089190

  Total energy:                                              -920.74924071624775

 ENERGY| Total FORCE_EVAL ( QS ) energy [hartree]           -920.749240832131250

 OPT| **************************************************************************
 OPT| Step number                                                             50
 OPT| Optimization method                                                  LBFGS
 OPT| Total energy [hartree]                                     -920.7492408321
 OPT| Effective energy change [hartree]                            -0.0009256220
 OPT| Decrease in energy                                                     YES
 OPT| Used time [s]                                                       56.511
 OPT|
 OPT| Maximum step size                                             0.0199111453
 OPT| Convergence limit for maximum step size                       0.0030000000
 OPT| Maximum step size is converged                                          NO
 OPT|
 OPT| RMS step size                                                 0.0048680543
 OPT| Convergence limit for RMS step size                           0.0015000000
 OPT| RMS step size is converged                                              NO
 OPT|
 OPT| Maximum gradient                                              0.0054913377
 OPT| Convergence limit for maximum gradient                        0.0010000000
 OPT| Maximum gradient is converged                                           NO
 OPT|
 OPT| RMS gradient                                                  0.0009015332
 OPT| Convergence limit for RMS gradient                            0.0003000000
 OPT| RMS gradient is converged                                               NO
 OPT| **************************************************************************
 OPT| Estimated peak process memory after this step [MiB]                   1993

 --------------------------
 OPTIMIZATION STEP:     51
 --------------------------

 Number of electrons:                                                        416
 Number of occupied orbitals:                                                208
 Number of molecular orbitals:                                               208

 Number of orbital functions:                                                318
 Number of independent orbital functions:                                    318

 Extrapolation method: ASPC


 SCF WAVEFUNCTION OPTIMIZATION

  ----------------------------------- OT ---------------------------------------
  Minimizer      : DIIS                : direct inversion
                                         in the iterative subspace
                                         using   7 DIIS vectors
                                         safer DIIS on
  Preconditioner : FULL_SINGLE_INVERSE : inversion of 
                                         H + eS - 2*(Sc)(c^T*H*c+const)(Sc)^T
  Precond_solver : DEFAULT
  stepsize       :    0.08000000                  energy_gap     :    0.08000000
  eps_taylor     :   0.10000E-15                  max_taylor     :             4
  ----------------------------------- OT ---------------------------------------

  Step     Update method      Time    Convergence         Total energy    Change
  ------------------------------------------------------------------------------
     1 OT DIIS     0.80E-01    6.5     0.00039124      -920.7486469524 -9.21E+02
     2 OT DIIS     0.80E-01    7.8     0.00023208      -920.7492710315 -6.24E-04
     3 OT DIIS     0.80E-01    7.8     0.00010289      -920.7495965882 -3.26E-04
     4 OT DIIS     0.80E-01    7.8     0.00003423      -920.7496591855 -6.26E-05
     5 OT DIIS     0.80E-01    7.8     0.00001268      -920.7496662438 -7.06E-06
     6 OT DIIS     0.80E-01    7.8     0.00000573      -920.7496671622 -9.18E-07

  *** SCF run converged in     6 steps ***


  Electronic density on regular grids:       -415.9999934108        0.0000065892
  Core density on regular grids:              415.9999999752       -0.0000000248
  Total charge density on r-space grids:        0.0000065644
  Total charge density g-space grids:           0.0000065644

  Overlap energy of the core charge distribution:               0.00000007726632
  Self energy of the core charge distribution:              -2388.37244906618980
  Core Hamiltonian energy:                                    696.94462500401187
  Hartree energy:                                             990.07861134726465
  Exchange-correlation energy:                               -219.40045452458423

  Total energy:                                              -920.74966716223139

 ENERGY| Total FORCE_EVAL ( QS ) energy [hartree]           -920.749667361794309

 OPT| **************************************************************************
 OPT| Step number                                                             51
 OPT| Optimization method                                                  LBFGS
 OPT| Total energy [hartree]                                     -920.7496673618
 OPT| Effective energy change [hartree]                            -0.0004265297
 OPT| Decrease in energy                                                     YES
 OPT| Used time [s]                                                       56.486
 OPT|
 OPT| Maximum step size                                             0.0341060801
 OPT| Convergence limit for maximum step size                       0.0030000000
 OPT| Maximum step size is converged                                          NO
 OPT|
 OPT| RMS step size                                                 0.0052608793
 OPT| Convergence limit for RMS step size                           0.0015000000
 OPT| RMS step size is converged                                              NO
 OPT|
 OPT| Maximum gradient                                              0.0049142311
 OPT| Convergence limit for maximum gradient                        0.0010000000
 OPT| Maximum gradient is converged                                           NO
 OPT|
 OPT| RMS gradient                                                  0.0010099408
 OPT| Convergence limit for RMS gradient                            0.0003000000
 OPT| RMS gradient is converged                                               NO
 OPT| **************************************************************************
 OPT| Estimated peak process memory after this step [MiB]                   1993

 --------------------------
 OPTIMIZATION STEP:     52
 --------------------------

 Number of electrons:                                                        416
 Number of occupied orbitals:                                                208
 Number of molecular orbitals:                                               208

 Number of orbital functions:                                                318
 Number of independent orbital functions:                                    318

 Extrapolation method: ASPC


 SCF WAVEFUNCTION OPTIMIZATION

  ----------------------------------- OT ---------------------------------------
  Minimizer      : DIIS                : direct inversion
                                         in the iterative subspace
                                         using   7 DIIS vectors
                                         safer DIIS on
  Preconditioner : FULL_SINGLE_INVERSE : inversion of 
                                         H + eS - 2*(Sc)(c^T*H*c+const)(Sc)^T
  Precond_solver : DEFAULT
  stepsize       :    0.08000000                  energy_gap     :    0.08000000
  eps_taylor     :   0.10000E-15                  max_taylor     :             4
  ----------------------------------- OT ---------------------------------------

  Step     Update method      Time    Convergence         Total energy    Change
  ------------------------------------------------------------------------------
     1 OT DIIS     0.80E-01    6.5     0.00026659      -920.7496205796 -9.21E+02
     2 OT DIIS     0.80E-01    7.8     0.00015034      -920.7499010382 -2.80E-04
     3 OT DIIS     0.80E-01    7.8     0.00007225      -920.7500264967 -1.25E-04
     4 OT DIIS     0.80E-01    7.8     0.00002537      -920.7500578150 -3.13E-05
     5 OT DIIS     0.80E-01    7.8     0.00000911      -920.7500618498 -4.03E-06

  *** SCF run converged in     5 steps ***


  Electronic density on regular grids:       -415.9999934220        0.0000065780
  Core density on regular grids:              415.9999999752       -0.0000000248
  Total charge density on r-space grids:        0.0000065532
  Total charge density g-space grids:           0.0000065532

  Overlap energy of the core charge distribution:               0.00000007802821
  Self energy of the core charge distribution:              -2388.37244906618980
  Core Hamiltonian energy:                                    696.94168239799546
  Hartree energy:                                             990.08112682387127
  Exchange-correlation energy:                               -219.40042208354816

  Total energy:                                              -920.75006184984295

 ENERGY| Total FORCE_EVAL ( QS ) energy [hartree]           -920.750062325980934

 OPT| **************************************************************************
 OPT| Step number                                                             52
 OPT| Optimization method                                                  LBFGS
 OPT| Total energy [hartree]                                     -920.7500623260
 OPT| Effective energy change [hartree]                            -0.0003949642
 OPT| Decrease in energy                                                     YES
 OPT| Used time [s]                                                       48.694
 OPT|
 OPT| Maximum step size                                             0.0358398333
 OPT| Convergence limit for maximum step size                       0.0030000000
 OPT| Maximum step size is converged                                          NO
 OPT|
 OPT| RMS step size                                                 0.0048247917
 OPT| Convergence limit for RMS step size                           0.0015000000
 OPT| RMS step size is converged                                              NO
 OPT|
 OPT| Maximum gradient                                              0.0028680676
 OPT| Convergence limit for maximum gradient                        0.0010000000
 OPT| Maximum gradient is converged                                           NO
 OPT|
 OPT| RMS gradient                                                  0.0007473929
 OPT| Convergence limit for RMS gradient                            0.0003000000
 OPT| RMS gradient is converged                                               NO
 OPT| **************************************************************************
 OPT| Estimated peak process memory after this step [MiB]                   1993

 --------------------------
 OPTIMIZATION STEP:     53
 --------------------------

 Number of electrons:                                                        416
 Number of occupied orbitals:                                                208
 Number of molecular orbitals:                                               208

 Number of orbital functions:                                                318
 Number of independent orbital functions:                                    318

 Extrapolation method: ASPC


 SCF WAVEFUNCTION OPTIMIZATION

  ----------------------------------- OT ---------------------------------------
  Minimizer      : DIIS                : direct inversion
                                         in the iterative subspace
                                         using   7 DIIS vectors
                                         safer DIIS on
  Preconditioner : FULL_SINGLE_INVERSE : inversion of 
                                         H + eS - 2*(Sc)(c^T*H*c+const)(Sc)^T
  Precond_solver : DEFAULT
  stepsize       :    0.08000000                  energy_gap     :    0.08000000
  eps_taylor     :   0.10000E-15                  max_taylor     :             4
  ----------------------------------- OT ---------------------------------------

  Step     Update method      Time    Convergence         Total energy    Change
  ------------------------------------------------------------------------------
     1 OT DIIS     0.80E-01    6.5     0.00029268      -920.7501641182 -9.21E+02
     2 OT DIIS     0.80E-01    7.8     0.00018046      -920.7505236564 -3.60E-04
     3 OT DIIS     0.80E-01    7.8     0.00006497      -920.7507418116 -2.18E-04
     4 OT DIIS     0.80E-01    7.8     0.00002241      -920.7507659885 -2.42E-05
     5 OT DIIS     0.80E-01    7.8     0.00000852      -920.7507688235 -2.83E-06

  *** SCF run converged in     5 steps ***


  Electronic density on regular grids:       -415.9999934261        0.0000065739
  Core density on regular grids:              415.9999999753       -0.0000000247
  Total charge density on r-space grids:        0.0000065491
  Total charge density g-space grids:           0.0000065491

  Overlap energy of the core charge distribution:               0.00000007800814
  Self energy of the core charge distribution:              -2388.37244906618980
  Core Hamiltonian energy:                                    696.91913041877376
  Hartree energy:                                             990.09753399084514
  Exchange-correlation energy:                               -219.39498424495633

  Total energy:                                              -920.75076882351891

 ENERGY| Total FORCE_EVAL ( QS ) energy [hartree]           -920.750769241623175

 OPT| **************************************************************************
 OPT| Step number                                                             53
 OPT| Optimization method                                                  LBFGS
 OPT| Total energy [hartree]                                     -920.7507692416
 OPT| Effective energy change [hartree]                            -0.0007069156
 OPT| Decrease in energy                                                     YES
 OPT| Used time [s]                                                       48.690
 OPT|
 OPT| Maximum step size                                             0.0903691208
 OPT| Convergence limit for maximum step size                       0.0030000000
 OPT| Maximum step size is converged                                          NO
 OPT|
 OPT| RMS step size                                                 0.0117808071
 OPT| Convergence limit for RMS step size                           0.0015000000
 OPT| RMS step size is converged                                              NO
 OPT|
 OPT| Maximum gradient                                              0.0063212347
 OPT| Convergence limit for maximum gradient                        0.0010000000
 OPT| Maximum gradient is converged                                           NO
 OPT|
 OPT| RMS gradient                                                  0.0008531430
 OPT| Convergence limit for RMS gradient                            0.0003000000
 OPT| RMS gradient is converged                                               NO
 OPT| **************************************************************************
 OPT| Estimated peak process memory after this step [MiB]                   1993

 --------------------------
 OPTIMIZATION STEP:     54
 --------------------------

 Number of electrons:                                                        416
 Number of occupied orbitals:                                                208
 Number of molecular orbitals:                                               208

 Number of orbital functions:                                                318
 Number of independent orbital functions:                                    318

 Extrapolation method: ASPC


 SCF WAVEFUNCTION OPTIMIZATION

  ----------------------------------- OT ---------------------------------------
  Minimizer      : DIIS                : direct inversion
                                         in the iterative subspace
                                         using   7 DIIS vectors
                                         safer DIIS on
  Preconditioner : FULL_SINGLE_INVERSE : inversion of 
                                         H + eS - 2*(Sc)(c^T*H*c+const)(Sc)^T
  Precond_solver : DEFAULT
  stepsize       :    0.08000000                  energy_gap     :    0.08000000
  eps_taylor     :   0.10000E-15                  max_taylor     :             4
  ----------------------------------- OT ---------------------------------------

  Step     Update method      Time    Convergence         Total energy    Change
  ------------------------------------------------------------------------------
     1 OT DIIS     0.80E-01    6.5     0.00087761      -920.7452083322 -9.21E+02
     2 OT DIIS     0.80E-01    7.8     0.00056450      -920.7485266134 -3.32E-03
     3 OT DIIS     0.80E-01    7.8     0.00014355      -920.7508924952 -2.37E-03
     4 OT DIIS     0.80E-01    7.8     0.00005343      -920.7510128246 -1.20E-04
     5 OT DIIS     0.80E-01    7.8     0.00002321      -920.7510274274 -1.46E-05
     6 OT DIIS     0.80E-01    7.8     0.00001002      -920.7510307159 -3.29E-06
     7 OT DIIS     0.80E-01    7.8     0.00000398      -920.7510313547 -6.39E-07

  *** SCF run converged in     7 steps ***


  Electronic density on regular grids:       -415.9999936089        0.0000063911
  Core density on regular grids:              415.9999999752       -0.0000000248
  Total charge density on r-space grids:        0.0000063664
  Total charge density g-space grids:           0.0000063664

  Overlap energy of the core charge distribution:               0.00000007174864
  Self energy of the core charge distribution:              -2388.37244906618980
  Core Hamiltonian energy:                                    696.77444446519769
  Hartree energy:                                             990.19853674223236
  Exchange-correlation energy:                               -219.35156356773399

  Total energy:                                              -920.75103135474524

 ENERGY| Total FORCE_EVAL ( QS ) energy [hartree]           -920.751031454890949

 Number of electrons:                                                        416
 Number of occupied orbitals:                                                208
 Number of molecular orbitals:                                               208

 Number of orbital functions:                                                318
 Number of independent orbital functions:                                    318

 Extrapolation method: ASPC


 SCF WAVEFUNCTION OPTIMIZATION

  ----------------------------------- OT ---------------------------------------
  Minimizer      : DIIS                : direct inversion
                                         in the iterative subspace
                                         using   7 DIIS vectors
                                         safer DIIS on
  Preconditioner : FULL_SINGLE_INVERSE : inversion of 
                                         H + eS - 2*(Sc)(c^T*H*c+const)(Sc)^T
  Precond_solver : DEFAULT
  stepsize       :    0.08000000                  energy_gap     :    0.08000000
  eps_taylor     :   0.10000E-15                  max_taylor     :             4
  ----------------------------------- OT ---------------------------------------

  Step     Update method      Time    Convergence         Total energy    Change
  ------------------------------------------------------------------------------
     1 OT DIIS     0.80E-01    6.5     0.00353032      -920.6586981171 -9.21E+02
     2 OT DIIS     0.80E-01    8.0     0.00225952      -920.7120486677 -5.34E-02
     3 OT DIIS     0.80E-01    7.9     0.00072489      -920.7485491439 -3.65E-02
     4 OT DIIS     0.80E-01    7.8     0.00021437      -920.7513248599 -2.78E-03
     5 OT DIIS     0.80E-01    7.9     0.00009761      -920.7515881445 -2.63E-04
     6 OT DIIS     0.80E-01    7.8     0.00004536      -920.7516445261 -5.64E-05
     7 OT DIIS     0.80E-01    7.8     0.00001795      -920.7516574877 -1.30E-05
     8 OT DIIS     0.80E-01    7.8     0.00000736      -920.7516595137 -2.03E-06

  *** SCF run converged in     8 steps ***


  Electronic density on regular grids:       -415.9999933858        0.0000066142
  Core density on regular grids:              415.9999999752       -0.0000000248
  Total charge density on r-space grids:        0.0000065893
  Total charge density g-space grids:           0.0000065893

  Overlap energy of the core charge distribution:               0.00000007687972
  Self energy of the core charge distribution:              -2388.37244906618980
  Core Hamiltonian energy:                                    696.88762315385998
  Hartree energy:                                             990.11950064509711
  Exchange-correlation energy:                               -219.38633432335018

  Total energy:                                              -920.75165951370332

 ENERGY| Total FORCE_EVAL ( QS ) energy [hartree]           -920.751659843691755

 Number of electrons:                                                        416
 Number of occupied orbitals:                                                208
 Number of molecular orbitals:                                               208

 Number of orbital functions:                                                318
 Number of independent orbital functions:                                    318

 Extrapolation method: ASPC


 SCF WAVEFUNCTION OPTIMIZATION

  ----------------------------------- OT ---------------------------------------
  Minimizer      : DIIS                : direct inversion
                                         in the iterative subspace
                                         using   7 DIIS vectors
                                         safer DIIS on
  Preconditioner : FULL_SINGLE_INVERSE : inversion of 
                                         H + eS - 2*(Sc)(c^T*H*c+const)(Sc)^T
  Precond_solver : DEFAULT
  stepsize       :    0.08000000                  energy_gap     :    0.08000000
  eps_taylor     :   0.10000E-15                  max_taylor     :             4
  ----------------------------------- OT ---------------------------------------

  Step     Update method      Time    Convergence         Total energy    Change
  ------------------------------------------------------------------------------
     1 OT DIIS     0.80E-01    6.5     0.00446988      -920.6049758251 -9.21E+02
     2 OT DIIS     0.80E-01    7.9     0.00284629      -920.6902682834 -8.53E-02
     3 OT DIIS     0.80E-01    7.8     0.00097244      -920.7471447082 -5.69E-02
     4 OT DIIS     0.80E-01    7.8     0.00028075      -920.7516884736 -4.54E-03
     5 OT DIIS     0.80E-01    7.9     0.00012903      -920.7521421165 -4.54E-04
     6 OT DIIS     0.80E-01    7.8     0.00006286      -920.7522368551 -9.47E-05
     7 OT DIIS     0.80E-01    7.8     0.00002473      -920.7522603660 -2.35E-05
     8 OT DIIS     0.80E-01    7.9     0.00000981      -920.7522641881 -3.82E-06

  *** SCF run converged in     8 steps ***


  Electronic density on regular grids:       -415.9999933756        0.0000066244
  Core density on regular grids:              415.9999999752       -0.0000000248
  Total charge density on r-space grids:        0.0000065996
  Total charge density g-space grids:           0.0000065996

  Overlap energy of the core charge distribution:               0.00000007476752
  Self energy of the core charge distribution:              -2388.37244906618980
  Core Hamiltonian energy:                                    696.84251589619714
  Hartree energy:                                             990.15087773262712
  Exchange-correlation energy:                               -219.37320882547880

  Total energy:                                              -920.75226418807642

 ENERGY| Total FORCE_EVAL ( QS ) energy [hartree]           -920.752264779312213

 OPT| **************************************************************************
 OPT| Step number                                                             54
 OPT| Optimization method                                                  LBFGS
 OPT| Total energy [hartree]                                     -920.7522647793
 OPT| Effective energy change [hartree]                            -0.0014955377
 OPT| Decrease in energy                                                     YES
 OPT| Used time [s]                                                      209.034
 OPT|
 OPT| Maximum step size                                             0.2177293160
 OPT| Convergence limit for maximum step size                       0.0030000000
 OPT| Maximum step size is converged                                          NO
 OPT|
 OPT| RMS step size                                                 0.0284332056
 OPT| Convergence limit for RMS step size                           0.0015000000
 OPT| RMS step size is converged                                              NO
 OPT|
 OPT| Maximum gradient                                              0.0096630806
 OPT| Convergence limit for maximum gradient                        0.0010000000
 OPT| Maximum gradient is converged                                           NO
 OPT|
 OPT| RMS gradient                                                  0.0017727996
 OPT| Convergence limit for RMS gradient                            0.0003000000
 OPT| RMS gradient is converged                                               NO
 OPT| **************************************************************************
 OPT| Estimated peak process memory after this step [MiB]                   1993

 --------------------------
 OPTIMIZATION STEP:     55
 --------------------------

 Number of electrons:                                                        416
 Number of occupied orbitals:                                                208
 Number of molecular orbitals:                                               208

 Number of orbital functions:                                                318
 Number of independent orbital functions:                                    318

 Extrapolation method: ASPC


 SCF WAVEFUNCTION OPTIMIZATION

  ----------------------------------- OT ---------------------------------------
  Minimizer      : DIIS                : direct inversion
                                         in the iterative subspace
                                         using   7 DIIS vectors
                                         safer DIIS on
  Preconditioner : FULL_SINGLE_INVERSE : inversion of 
                                         H + eS - 2*(Sc)(c^T*H*c+const)(Sc)^T
  Precond_solver : DEFAULT
  stepsize       :    0.08000000                  energy_gap     :    0.08000000
  eps_taylor     :   0.10000E-15                  max_taylor     :             4
  ----------------------------------- OT ---------------------------------------

  Step     Update method      Time    Convergence         Total energy    Change
  ------------------------------------------------------------------------------
     1 OT DIIS     0.80E-01    6.5     0.00222219      -920.7177314028 -9.21E+02
     2 OT DIIS     0.80E-01    7.8     0.00134463      -920.7376214314 -1.99E-02
     3 OT DIIS     0.80E-01    7.8     0.00070178      -920.7478209548 -1.02E-02
     4 OT DIIS     0.80E-01    7.8     0.00016826      -920.7510788372 -3.26E-03
     5 OT DIIS     0.80E-01    7.9     0.00006714      -920.7512553618 -1.77E-04
     6 OT DIIS     0.80E-01    7.8     0.00003162      -920.7512798061 -2.44E-05
     7 OT DIIS     0.80E-01    7.8     0.00001338      -920.7512858400 -6.03E-06
     8 OT DIIS     0.80E-01    7.9     0.00000487      -920.7512870388 -1.20E-06

  *** SCF run converged in     8 steps ***


  Electronic density on regular grids:       -415.9999940126        0.0000059874
  Core density on regular grids:              415.9999999752       -0.0000000248
  Total charge density on r-space grids:        0.0000059626
  Total charge density g-space grids:           0.0000059626

  Overlap energy of the core charge distribution:               0.00000007259791
  Self energy of the core charge distribution:              -2388.37244906618980
  Core Hamiltonian energy:                                    696.74215472683068
  Hartree energy:                                             990.22403260534145
  Exchange-correlation energy:                               -219.34502537735872

  Total energy:                                              -920.75128703877874

 ENERGY| Total FORCE_EVAL ( QS ) energy [hartree]           -920.751287179448127

 Number of electrons:                                                        416
 Number of occupied orbitals:                                                208
 Number of molecular orbitals:                                               208

 Number of orbital functions:                                                318
 Number of independent orbital functions:                                    318

 Extrapolation method: ASPC


 SCF WAVEFUNCTION OPTIMIZATION

  ----------------------------------- OT ---------------------------------------
  Minimizer      : DIIS                : direct inversion
                                         in the iterative subspace
                                         using   7 DIIS vectors
                                         safer DIIS on
  Preconditioner : FULL_SINGLE_INVERSE : inversion of 
                                         H + eS - 2*(Sc)(c^T*H*c+const)(Sc)^T
  Precond_solver : DEFAULT
  stepsize       :    0.08000000                  energy_gap     :    0.08000000
  eps_taylor     :   0.10000E-15                  max_taylor     :             4
  ----------------------------------- OT ---------------------------------------

  Step     Update method      Time    Convergence         Total energy    Change
  ------------------------------------------------------------------------------
     1 OT DIIS     0.80E-01    6.5     0.00160586      -920.7331232792 -9.21E+02
     2 OT DIIS     0.80E-01    7.8     0.00103300      -920.7442479069 -1.11E-02
     3 OT DIIS     0.80E-01    7.8     0.00024887      -920.7522143275 -7.97E-03
     4 OT DIIS     0.80E-01    7.8     0.00009801      -920.7525593703 -3.45E-04
     5 OT DIIS     0.80E-01    7.9     0.00004142      -920.7526095444 -5.02E-05
     6 OT DIIS     0.80E-01    7.8     0.00001825      -920.7526201291 -1.06E-05
     7 OT DIIS     0.80E-01    7.8     0.00000734      -920.7526222786 -2.15E-06

  *** SCF run converged in     7 steps ***


  Electronic density on regular grids:       -415.9999934272        0.0000065728
  Core density on regular grids:              415.9999999752       -0.0000000248
  Total charge density on r-space grids:        0.0000065480
  Total charge density g-space grids:           0.0000065480

  Overlap energy of the core charge distribution:               0.00000007449881
  Self energy of the core charge distribution:              -2388.37244906618980
  Core Hamiltonian energy:                                    696.81910271021206
  Hartree energy:                                             990.16812707746578
  Exchange-correlation energy:                               -219.36740307454687

  Total energy:                                              -920.75262227855978

 ENERGY| Total FORCE_EVAL ( QS ) energy [hartree]           -920.752622609971922

 OPT| **************************************************************************
 OPT| Step number                                                             55
 OPT| Optimization method                                                  LBFGS
 OPT| Total energy [hartree]                                     -920.7526226100
 OPT| Effective energy change [hartree]                            -0.0003578307
 OPT| Decrease in energy                                                     YES
 OPT| Used time [s]                                                      136.558
 OPT|
 OPT| Maximum step size                                             0.0728770556
 OPT| Convergence limit for maximum step size                       0.0030000000
 OPT| Maximum step size is converged                                          NO
 OPT|
 OPT| RMS step size                                                 0.0094684006
 OPT| Convergence limit for RMS step size                           0.0015000000
 OPT| RMS step size is converged                                              NO
 OPT|
 OPT| Maximum gradient                                              0.0087488318
 OPT| Convergence limit for maximum gradient                        0.0010000000
 OPT| Maximum gradient is converged                                           NO
 OPT|
 OPT| RMS gradient                                                  0.0015396963
 OPT| Convergence limit for RMS gradient                            0.0003000000
 OPT| RMS gradient is converged                                               NO
 OPT| **************************************************************************
 OPT| Estimated peak process memory after this step [MiB]                   1993

 --------------------------
 OPTIMIZATION STEP:     56
 --------------------------

 Number of electrons:                                                        416
 Number of occupied orbitals:                                                208
 Number of molecular orbitals:                                               208

 Number of orbital functions:                                                318
 Number of independent orbital functions:                                    318

 Extrapolation method: ASPC


 SCF WAVEFUNCTION OPTIMIZATION

  ----------------------------------- OT ---------------------------------------
  Minimizer      : DIIS                : direct inversion
                                         in the iterative subspace
                                         using   7 DIIS vectors
                                         safer DIIS on
  Preconditioner : FULL_SINGLE_INVERSE : inversion of 
                                         H + eS - 2*(Sc)(c^T*H*c+const)(Sc)^T
  Precond_solver : DEFAULT
  stepsize       :    0.08000000                  energy_gap     :    0.08000000
  eps_taylor     :   0.10000E-15                  max_taylor     :             4
  ----------------------------------- OT ---------------------------------------

  Step     Update method      Time    Convergence         Total energy    Change
  ------------------------------------------------------------------------------
     1 OT DIIS     0.80E-01    6.5     0.00268343      -920.7001734414 -9.21E+02
     2 OT DIIS     0.80E-01    7.8     0.00170298      -920.7308326512 -3.07E-02
     3 OT DIIS     0.80E-01    7.9     0.00058224      -920.7512154190 -2.04E-02
     4 OT DIIS     0.80E-01    7.9     0.00016697      -920.7530695167 -1.85E-03
     5 OT DIIS     0.80E-01    7.8     0.00007204      -920.7532342902 -1.65E-04
     6 OT DIIS     0.80E-01    7.8     0.00003502      -920.7532639380 -2.96E-05
     7 OT DIIS     0.80E-01    7.9     0.00001343      -920.7532713792 -7.44E-06
     8 OT DIIS     0.80E-01    7.8     0.00000552      -920.7532724902 -1.11E-06

  *** SCF run converged in     8 steps ***


  Electronic density on regular grids:       -415.9999933418        0.0000066582
  Core density on regular grids:              415.9999999752       -0.0000000248
  Total charge density on r-space grids:        0.0000066334
  Total charge density g-space grids:           0.0000066334

  Overlap energy of the core charge distribution:               0.00000008207999
  Self energy of the core charge distribution:              -2388.37244906618980
  Core Hamiltonian energy:                                    696.88123244127735
  Hartree energy:                                             990.12757483852079
  Exchange-correlation energy:                               -219.38963078586269

  Total energy:                                              -920.75327249017414

 ENERGY| Total FORCE_EVAL ( QS ) energy [hartree]           -920.753272676567235

 OPT| **************************************************************************
 OPT| Step number                                                             56
 OPT| Optimization method                                                  LBFGS
 OPT| Total energy [hartree]                                     -920.7532726766
 OPT| Effective energy change [hartree]                            -0.0006500666
 OPT| Decrease in energy                                                     YES
 OPT| Used time [s]                                                       72.226
 OPT|
 OPT| Maximum step size                                             0.0265349543
 OPT| Convergence limit for maximum step size                       0.0030000000
 OPT| Maximum step size is converged                                          NO
 OPT|
 OPT| RMS step size                                                 0.0057268835
 OPT| Convergence limit for RMS step size                           0.0015000000
 OPT| RMS step size is converged                                              NO
 OPT|
 OPT| Maximum gradient                                              0.0146670263
 OPT| Convergence limit for maximum gradient                        0.0010000000
 OPT| Maximum gradient is converged                                           NO
 OPT|
 OPT| RMS gradient                                                  0.0021655250
 OPT| Convergence limit for RMS gradient                            0.0003000000
 OPT| RMS gradient is converged                                               NO
 OPT| **************************************************************************
 OPT| Estimated peak process memory after this step [MiB]                   1993

 --------------------------
 OPTIMIZATION STEP:     57
 --------------------------

 Number of electrons:                                                        416
 Number of occupied orbitals:                                                208
 Number of molecular orbitals:                                               208

 Number of orbital functions:                                                318
 Number of independent orbital functions:                                    318

 Extrapolation method: ASPC


 SCF WAVEFUNCTION OPTIMIZATION

  ----------------------------------- OT ---------------------------------------
  Minimizer      : DIIS                : direct inversion
                                         in the iterative subspace
                                         using   7 DIIS vectors
                                         safer DIIS on
  Preconditioner : FULL_SINGLE_INVERSE : inversion of 
                                         H + eS - 2*(Sc)(c^T*H*c+const)(Sc)^T
  Precond_solver : DEFAULT
  stepsize       :    0.08000000                  energy_gap     :    0.08000000
  eps_taylor     :   0.10000E-15                  max_taylor     :             4
  ----------------------------------- OT ---------------------------------------

  Step     Update method      Time    Convergence         Total energy    Change
  ------------------------------------------------------------------------------
     1 OT DIIS     0.80E-01    6.5     0.00147991      -920.7375406643 -9.21E+02
     2 OT DIIS     0.80E-01    7.8     0.00094754      -920.7469458741 -9.41E-03
     3 OT DIIS     0.80E-01    7.8     0.00026704      -920.7535022476 -6.56E-03
     4 OT DIIS     0.80E-01    7.8     0.00009825      -920.7539058334 -4.04E-04
     5 OT DIIS     0.80E-01    7.8     0.00003859      -920.7539589554 -5.31E-05
     6 OT DIIS     0.80E-01    7.8     0.00001746      -920.7539677153 -8.76E-06
     7 OT DIIS     0.80E-01    7.9     0.00000694      -920.7539696373 -1.92E-06

  *** SCF run converged in     7 steps ***


  Electronic density on regular grids:       -415.9999933161        0.0000066839
  Core density on regular grids:              415.9999999752       -0.0000000248
  Total charge density on r-space grids:        0.0000066592
  Total charge density g-space grids:           0.0000066592

  Overlap energy of the core charge distribution:               0.00000007841582
  Self energy of the core charge distribution:              -2388.37244906618980
  Core Hamiltonian energy:                                    696.87347198796226
  Hartree energy:                                             990.13016295261309
  Exchange-correlation energy:                               -219.38515559006501

  Total energy:                                              -920.75396963726382

 ENERGY| Total FORCE_EVAL ( QS ) energy [hartree]           -920.753969941079049

 OPT| **************************************************************************
 OPT| Step number                                                             57
 OPT| Optimization method                                                  LBFGS
 OPT| Total energy [hartree]                                     -920.7539699411
 OPT| Effective energy change [hartree]                            -0.0006972645
 OPT| Decrease in energy                                                     YES
 OPT| Used time [s]                                                       64.400
 OPT|
 OPT| Maximum step size                                             0.0174237858
 OPT| Convergence limit for maximum step size                       0.0030000000
 OPT| Maximum step size is converged                                          NO
 OPT|
 OPT| RMS step size                                                 0.0027354778
 OPT| Convergence limit for RMS step size                           0.0015000000
 OPT| RMS step size is converged                                              NO
 OPT|
 OPT| Maximum gradient                                              0.0051258695
 OPT| Convergence limit for maximum gradient                        0.0010000000
 OPT| Maximum gradient is converged                                           NO
 OPT|
 OPT| RMS gradient                                                  0.0009747040
 OPT| Convergence limit for RMS gradient                            0.0003000000
 OPT| RMS gradient is converged                                               NO
 OPT| **************************************************************************
 OPT| Estimated peak process memory after this step [MiB]                   1993

 --------------------------
 OPTIMIZATION STEP:     58
 --------------------------

 Number of electrons:                                                        416
 Number of occupied orbitals:                                                208
 Number of molecular orbitals:                                               208

 Number of orbital functions:                                                318
 Number of independent orbital functions:                                    318

 Extrapolation method: ASPC


 SCF WAVEFUNCTION OPTIMIZATION

  ----------------------------------- OT ---------------------------------------
  Minimizer      : DIIS                : direct inversion
                                         in the iterative subspace
                                         using   7 DIIS vectors
                                         safer DIIS on
  Preconditioner : FULL_SINGLE_INVERSE : inversion of 
                                         H + eS - 2*(Sc)(c^T*H*c+const)(Sc)^T
  Precond_solver : DEFAULT
  stepsize       :    0.08000000                  energy_gap     :    0.08000000
  eps_taylor     :   0.10000E-15                  max_taylor     :             4
  ----------------------------------- OT ---------------------------------------

  Step     Update method      Time    Convergence         Total energy    Change
  ------------------------------------------------------------------------------
     1 OT DIIS     0.80E-01    6.5     0.00052052      -920.7526697122 -9.21E+02
     2 OT DIIS     0.80E-01    7.8     0.00029590      -920.7537328183 -1.06E-03
     3 OT DIIS     0.80E-01    7.8     0.00015089      -920.7542036928 -4.71E-04
     4 OT DIIS     0.80E-01    7.8     0.00005031      -920.7543432444 -1.40E-04
     5 OT DIIS     0.80E-01    7.8     0.00001735      -920.7543597570 -1.65E-05
     6 OT DIIS     0.80E-01    7.8     0.00000764      -920.7543613865 -1.63E-06

  *** SCF run converged in     6 steps ***


  Electronic density on regular grids:       -415.9999932880        0.0000067120
  Core density on regular grids:              415.9999999752       -0.0000000248
  Total charge density on r-space grids:        0.0000066873
  Total charge density g-space grids:           0.0000066873

  Overlap energy of the core charge distribution:               0.00000007680533
  Self energy of the core charge distribution:              -2388.37244906618980
  Core Hamiltonian energy:                                    696.87852116074021
  Hartree energy:                                             990.12431337961686
  Exchange-correlation energy:                               -219.38474693748589

  Total energy:                                              -920.75436138651321

 ENERGY| Total FORCE_EVAL ( QS ) energy [hartree]           -920.754361735625821

 OPT| **************************************************************************
 OPT| Step number                                                             58
 OPT| Optimization method                                                  LBFGS
 OPT| Total energy [hartree]                                     -920.7543617356
 OPT| Effective energy change [hartree]                            -0.0003917945
 OPT| Decrease in energy                                                     YES
 OPT| Used time [s]                                                       56.418
 OPT|
 OPT| Maximum step size                                             0.0161906273
 OPT| Convergence limit for maximum step size                       0.0030000000
 OPT| Maximum step size is converged                                          NO
 OPT|
 OPT| RMS step size                                                 0.0027558872
 OPT| Convergence limit for RMS step size                           0.0015000000
 OPT| RMS step size is converged                                              NO
 OPT|
 OPT| Maximum gradient                                              0.0039010212
 OPT| Convergence limit for maximum gradient                        0.0010000000
 OPT| Maximum gradient is converged                                           NO
 OPT|
 OPT| RMS gradient                                                  0.0008016247
 OPT| Convergence limit for RMS gradient                            0.0003000000
 OPT| RMS gradient is converged                                               NO
 OPT| **************************************************************************
 OPT| Estimated peak process memory after this step [MiB]                   1993

 --------------------------
 OPTIMIZATION STEP:     59
 --------------------------

 Number of electrons:                                                        416
 Number of occupied orbitals:                                                208
 Number of molecular orbitals:                                               208

 Number of orbital functions:                                                318
 Number of independent orbital functions:                                    318

 Extrapolation method: ASPC


 SCF WAVEFUNCTION OPTIMIZATION

  ----------------------------------- OT ---------------------------------------
  Minimizer      : DIIS                : direct inversion
                                         in the iterative subspace
                                         using   7 DIIS vectors
                                         safer DIIS on
  Preconditioner : FULL_SINGLE_INVERSE : inversion of 
                                         H + eS - 2*(Sc)(c^T*H*c+const)(Sc)^T
  Precond_solver : DEFAULT
  stepsize       :    0.08000000                  energy_gap     :    0.08000000
  eps_taylor     :   0.10000E-15                  max_taylor     :             4
  ----------------------------------- OT ---------------------------------------

  Step     Update method      Time    Convergence         Total energy    Change
  ------------------------------------------------------------------------------
     1 OT DIIS     0.80E-01    6.5     0.00018450      -920.7546629695 -9.21E+02
     2 OT DIIS     0.80E-01    7.8     0.00009889      -920.7547907102 -1.28E-04
     3 OT DIIS     0.80E-01    7.8     0.00005268      -920.7548379532 -4.72E-05
     4 OT DIIS     0.80E-01    7.8     0.00001761      -920.7548545491 -1.66E-05
     5 OT DIIS     0.80E-01    7.8     0.00000638      -920.7548565377 -1.99E-06

  *** SCF run converged in     5 steps ***


  Electronic density on regular grids:       -415.9999932931        0.0000067069
  Core density on regular grids:              415.9999999753       -0.0000000247
  Total charge density on r-space grids:        0.0000066822
  Total charge density g-space grids:           0.0000066822

  Overlap energy of the core charge distribution:               0.00000007606562
  Self energy of the core charge distribution:              -2388.37244906618980
  Core Hamiltonian energy:                                    696.88941657941223
  Hartree energy:                                             990.11452976202054
  Exchange-correlation energy:                               -219.38635388904652

  Total energy:                                              -920.75485653773796

 ENERGY| Total FORCE_EVAL ( QS ) energy [hartree]           -920.754856764297642

 OPT| **************************************************************************
 OPT| Step number                                                             59
 OPT| Optimization method                                                  LBFGS
 OPT| Total energy [hartree]                                     -920.7548567643
 OPT| Effective energy change [hartree]                            -0.0004950287
 OPT| Decrease in energy                                                     YES
 OPT| Used time [s]                                                       48.590
 OPT|
 OPT| Maximum step size                                             0.0281396749
 OPT| Convergence limit for maximum step size                       0.0030000000
 OPT| Maximum step size is converged                                          NO
 OPT|
 OPT| RMS step size                                                 0.0048623153
 OPT| Convergence limit for RMS step size                           0.0015000000
 OPT| RMS step size is converged                                              NO
 OPT|
 OPT| Maximum gradient                                              0.0070459844
 OPT| Convergence limit for maximum gradient                        0.0010000000
 OPT| Maximum gradient is converged                                           NO
 OPT|
 OPT| RMS gradient                                                  0.0011260055
 OPT| Convergence limit for RMS gradient                            0.0003000000
 OPT| RMS gradient is converged                                               NO
 OPT| **************************************************************************
 OPT| Estimated peak process memory after this step [MiB]                   1993

 --------------------------
 OPTIMIZATION STEP:     60
 --------------------------

 Number of electrons:                                                        416
 Number of occupied orbitals:                                                208
 Number of molecular orbitals:                                               208

 Number of orbital functions:                                                318
 Number of independent orbital functions:                                    318

 Extrapolation method: ASPC


 SCF WAVEFUNCTION OPTIMIZATION

  ----------------------------------- OT ---------------------------------------
  Minimizer      : DIIS                : direct inversion
                                         in the iterative subspace
                                         using   7 DIIS vectors
                                         safer DIIS on
  Preconditioner : FULL_SINGLE_INVERSE : inversion of 
                                         H + eS - 2*(Sc)(c^T*H*c+const)(Sc)^T
  Precond_solver : DEFAULT
  stepsize       :    0.08000000                  energy_gap     :    0.08000000
  eps_taylor     :   0.10000E-15                  max_taylor     :             4
  ----------------------------------- OT ---------------------------------------

  Step     Update method      Time    Convergence         Total energy    Change
  ------------------------------------------------------------------------------
     1 OT DIIS     0.80E-01    6.5     0.00020837      -920.7553999140 -9.21E+02
     2 OT DIIS     0.80E-01    7.8     0.00013099      -920.7555843383 -1.84E-04
     3 OT DIIS     0.80E-01    7.8     0.00004175      -920.7557047882 -1.20E-04
     4 OT DIIS     0.80E-01    7.8     0.00001456      -920.7557148807 -1.01E-05
     5 OT DIIS     0.80E-01    7.8     0.00000602      -920.7557160445 -1.16E-06

  *** SCF run converged in     5 steps ***


  Electronic density on regular grids:       -415.9999933831        0.0000066169
  Core density on regular grids:              415.9999999753       -0.0000000247
  Total charge density on r-space grids:        0.0000065922
  Total charge density g-space grids:           0.0000065922

  Overlap energy of the core charge distribution:               0.00000007510276
  Self energy of the core charge distribution:              -2388.37244906618980
  Core Hamiltonian energy:                                    696.90651700858029
  Hartree energy:                                             990.09906758808631
  Exchange-correlation energy:                               -219.38885165003316

  Total energy:                                              -920.75571604445349

 ENERGY| Total FORCE_EVAL ( QS ) energy [hartree]           -920.755716256955793

 OPT| **************************************************************************
 OPT| Step number                                                             60
 OPT| Optimization method                                                  LBFGS
 OPT| Total energy [hartree]                                     -920.7557162570
 OPT| Effective energy change [hartree]                            -0.0008594927
 OPT| Decrease in energy                                                     YES
 OPT| Used time [s]                                                       48.579
 OPT|
 OPT| Maximum step size                                             0.0800224655
 OPT| Convergence limit for maximum step size                       0.0030000000
 OPT| Maximum step size is converged                                          NO
 OPT|
 OPT| RMS step size                                                 0.0133487809
 OPT| Convergence limit for RMS step size                           0.0015000000
 OPT| RMS step size is converged                                              NO
 OPT|
 OPT| Maximum gradient                                              0.0111613978
 OPT| Convergence limit for maximum gradient                        0.0010000000
 OPT| Maximum gradient is converged                                           NO
 OPT|
 OPT| RMS gradient                                                  0.0019588000
 OPT| Convergence limit for RMS gradient                            0.0003000000
 OPT| RMS gradient is converged                                               NO
 OPT| **************************************************************************
 OPT| Estimated peak process memory after this step [MiB]                   1993

 --------------------------
 OPTIMIZATION STEP:     61
 --------------------------

 Number of electrons:                                                        416
 Number of occupied orbitals:                                                208
 Number of molecular orbitals:                                               208

 Number of orbital functions:                                                318
 Number of independent orbital functions:                                    318

 Extrapolation method: ASPC


 SCF WAVEFUNCTION OPTIMIZATION

  ----------------------------------- OT ---------------------------------------
  Minimizer      : DIIS                : direct inversion
                                         in the iterative subspace
                                         using   7 DIIS vectors
                                         safer DIIS on
  Preconditioner : FULL_SINGLE_INVERSE : inversion of 
                                         H + eS - 2*(Sc)(c^T*H*c+const)(Sc)^T
  Precond_solver : DEFAULT
  stepsize       :    0.08000000                  energy_gap     :    0.08000000
  eps_taylor     :   0.10000E-15                  max_taylor     :             4
  ----------------------------------- OT ---------------------------------------

  Step     Update method      Time    Convergence         Total energy    Change
  ------------------------------------------------------------------------------
     1 OT DIIS     0.80E-01    6.5     0.00056144      -920.7542030735 -9.21E+02
     2 OT DIIS     0.80E-01    7.8     0.00034789      -920.7555133655 -1.31E-03
     3 OT DIIS     0.80E-01    7.8     0.00015499      -920.7562759876 -7.63E-04
     4 OT DIIS     0.80E-01    7.8     0.00004306      -920.7564211187 -1.45E-04
     5 OT DIIS     0.80E-01    7.8     0.00001737      -920.7564319191 -1.08E-05
     6 OT DIIS     0.80E-01    7.8     0.00000811      -920.7564335460 -1.63E-06

  *** SCF run converged in     6 steps ***


  Electronic density on regular grids:       -415.9999934037        0.0000065963
  Core density on regular grids:              415.9999999752       -0.0000000248
  Total charge density on r-space grids:        0.0000065716
  Total charge density g-space grids:           0.0000065716

  Overlap energy of the core charge distribution:               0.00000007583756
  Self energy of the core charge distribution:              -2388.37244906618980
  Core Hamiltonian energy:                                    696.91296926170685
  Hartree energy:                                             990.09442931021135
  Exchange-correlation energy:                               -219.39138312755242

  Total energy:                                              -920.75643354598628

 ENERGY| Total FORCE_EVAL ( QS ) energy [hartree]           -920.756433952092607

 OPT| **************************************************************************
 OPT| Step number                                                             61
 OPT| Optimization method                                                  LBFGS
 OPT| Total energy [hartree]                                     -920.7564339521
 OPT| Effective energy change [hartree]                            -0.0007176951
 OPT| Decrease in energy                                                     YES
 OPT| Used time [s]                                                       56.456
 OPT|
 OPT| Maximum step size                                             0.0351512546
 OPT| Convergence limit for maximum step size                       0.0030000000
 OPT| Maximum step size is converged                                          NO
 OPT|
 OPT| RMS step size                                                 0.0050575897
 OPT| Convergence limit for RMS step size                           0.0015000000
 OPT| RMS step size is converged                                              NO
 OPT|
 OPT| Maximum gradient                                              0.0093271109
 OPT| Convergence limit for maximum gradient                        0.0010000000
 OPT| Maximum gradient is converged                                           NO
 OPT|
 OPT| RMS gradient                                                  0.0017223787
 OPT| Convergence limit for RMS gradient                            0.0003000000
 OPT| RMS gradient is converged                                               NO
 OPT| **************************************************************************
 OPT| Estimated peak process memory after this step [MiB]                   1993

 --------------------------
 OPTIMIZATION STEP:     62
 --------------------------

 Number of electrons:                                                        416
 Number of occupied orbitals:                                                208
 Number of molecular orbitals:                                               208

 Number of orbital functions:                                                318
 Number of independent orbital functions:                                    318

 Extrapolation method: ASPC


 SCF WAVEFUNCTION OPTIMIZATION

  ----------------------------------- OT ---------------------------------------
  Minimizer      : DIIS                : direct inversion
                                         in the iterative subspace
                                         using   7 DIIS vectors
                                         safer DIIS on
  Preconditioner : FULL_SINGLE_INVERSE : inversion of 
                                         H + eS - 2*(Sc)(c^T*H*c+const)(Sc)^T
  Precond_solver : DEFAULT
  stepsize       :    0.08000000                  energy_gap     :    0.08000000
  eps_taylor     :   0.10000E-15                  max_taylor     :             4
  ----------------------------------- OT ---------------------------------------

  Step     Update method      Time    Convergence         Total energy    Change
  ------------------------------------------------------------------------------
     1 OT DIIS     0.80E-01    6.5     0.00028645      -920.7566185361 -9.21E+02
     2 OT DIIS     0.80E-01    7.8     0.00017103      -920.7569530765 -3.35E-04
     3 OT DIIS     0.80E-01    7.8     0.00007785      -920.7571289648 -1.76E-04
     4 OT DIIS     0.80E-01    7.8     0.00002483      -920.7571659023 -3.69E-05
     5 OT DIIS     0.80E-01    7.8     0.00000944      -920.7571695086 -3.61E-06

  *** SCF run converged in     5 steps ***


  Electronic density on regular grids:       -415.9999932592        0.0000067408
  Core density on regular grids:              415.9999999752       -0.0000000248
  Total charge density on r-space grids:        0.0000067160
  Total charge density g-space grids:           0.0000067160

  Overlap energy of the core charge distribution:               0.00000007882041
  Self energy of the core charge distribution:              -2388.37244906618980
  Core Hamiltonian energy:                                    696.92461081356305
  Hartree energy:                                             990.08857541823545
  Exchange-correlation energy:                               -219.39790675307822

  Total energy:                                              -920.75716950864910

 ENERGY| Total FORCE_EVAL ( QS ) energy [hartree]           -920.757169994716833

 OPT| **************************************************************************
 OPT| Step number                                                             62
 OPT| Optimization method                                                  LBFGS
 OPT| Total energy [hartree]                                     -920.7571699947
 OPT| Effective energy change [hartree]                            -0.0007360426
 OPT| Decrease in energy                                                     YES
 OPT| Used time [s]                                                       48.592
 OPT|
 OPT| Maximum step size                                             0.0367389177
 OPT| Convergence limit for maximum step size                       0.0030000000
 OPT| Maximum step size is converged                                          NO
 OPT|
 OPT| RMS step size                                                 0.0051191726
 OPT| Convergence limit for RMS step size                           0.0015000000
 OPT| RMS step size is converged                                              NO
 OPT|
 OPT| Maximum gradient                                              0.0052102278
 OPT| Convergence limit for maximum gradient                        0.0010000000
 OPT| Maximum gradient is converged                                           NO
 OPT|
 OPT| RMS gradient                                                  0.0008849157
 OPT| Convergence limit for RMS gradient                            0.0003000000
 OPT| RMS gradient is converged                                               NO
 OPT| **************************************************************************
 OPT| Estimated peak process memory after this step [MiB]                   1993

 --------------------------
 OPTIMIZATION STEP:     63
 --------------------------

 Number of electrons:                                                        416
 Number of occupied orbitals:                                                208
 Number of molecular orbitals:                                               208

 Number of orbital functions:                                                318
 Number of independent orbital functions:                                    318

 Extrapolation method: ASPC


 SCF WAVEFUNCTION OPTIMIZATION

  ----------------------------------- OT ---------------------------------------
  Minimizer      : DIIS                : direct inversion
                                         in the iterative subspace
                                         using   7 DIIS vectors
                                         safer DIIS on
  Preconditioner : FULL_SINGLE_INVERSE : inversion of 
                                         H + eS - 2*(Sc)(c^T*H*c+const)(Sc)^T
  Precond_solver : DEFAULT
  stepsize       :    0.08000000                  energy_gap     :    0.08000000
  eps_taylor     :   0.10000E-15                  max_taylor     :             4
  ----------------------------------- OT ---------------------------------------

  Step     Update method      Time    Convergence         Total energy    Change
  ------------------------------------------------------------------------------
     1 OT DIIS     0.80E-01    6.5     0.00033803      -920.7567171797 -9.21E+02
     2 OT DIIS     0.80E-01    7.8     0.00019158      -920.7571625818 -4.45E-04
     3 OT DIIS     0.80E-01    7.8     0.00010111      -920.7573540617 -1.91E-04
     4 OT DIIS     0.80E-01    7.8     0.00003387      -920.7574149028 -6.08E-05
     5 OT DIIS     0.80E-01    7.8     0.00001247      -920.7574222936 -7.39E-06
     6 OT DIIS     0.80E-01    7.8     0.00000567      -920.7574232013 -9.08E-07

  *** SCF run converged in     6 steps ***


  Electronic density on regular grids:       -415.9999931773        0.0000068227
  Core density on regular grids:              415.9999999752       -0.0000000248
  Total charge density on r-space grids:        0.0000067979
  Total charge density g-space grids:           0.0000067979

  Overlap energy of the core charge distribution:               0.00000007843763
  Self energy of the core charge distribution:              -2388.37244906618980
  Core Hamiltonian energy:                                    696.92746901966188
  Hartree energy:                                             990.08596404794821
  Exchange-correlation energy:                               -219.39840728116798

  Total energy:                                              -920.75742320131008

 ENERGY| Total FORCE_EVAL ( QS ) energy [hartree]           -920.757423401675851

 OPT| **************************************************************************
 OPT| Step number                                                             63
 OPT| Optimization method                                                  LBFGS
 OPT| Total energy [hartree]                                     -920.7574234017
 OPT| Effective energy change [hartree]                            -0.0002534070
 OPT| Decrease in energy                                                     YES
 OPT| Used time [s]                                                       56.464
 OPT|
 OPT| Maximum step size                                             0.0088203888
 OPT| Convergence limit for maximum step size                       0.0030000000
 OPT| Maximum step size is converged                                          NO
 OPT|
 OPT| RMS step size                                                 0.0015683329
 OPT| Convergence limit for RMS step size                           0.0015000000
 OPT| RMS step size is converged                                              NO
 OPT|
 OPT| Maximum gradient                                              0.0030113517
 OPT| Convergence limit for maximum gradient                        0.0010000000
 OPT| Maximum gradient is converged                                           NO
 OPT|
 OPT| RMS gradient                                                  0.0005467396
 OPT| Convergence limit for RMS gradient                            0.0003000000
 OPT| RMS gradient is converged                                               NO
 OPT| **************************************************************************
 OPT| Estimated peak process memory after this step [MiB]                   1993

 --------------------------
 OPTIMIZATION STEP:     64
 --------------------------

 Number of electrons:                                                        416
 Number of occupied orbitals:                                                208
 Number of molecular orbitals:                                               208

 Number of orbital functions:                                                318
 Number of independent orbital functions:                                    318

 Extrapolation method: ASPC


 SCF WAVEFUNCTION OPTIMIZATION

  ----------------------------------- OT ---------------------------------------
  Minimizer      : DIIS                : direct inversion
                                         in the iterative subspace
                                         using   7 DIIS vectors
                                         safer DIIS on
  Preconditioner : FULL_SINGLE_INVERSE : inversion of 
                                         H + eS - 2*(Sc)(c^T*H*c+const)(Sc)^T
  Precond_solver : DEFAULT
  stepsize       :    0.08000000                  energy_gap     :    0.08000000
  eps_taylor     :   0.10000E-15                  max_taylor     :             4
  ----------------------------------- OT ---------------------------------------

  Step     Update method      Time    Convergence         Total energy    Change
  ------------------------------------------------------------------------------
     1 OT DIIS     0.80E-01    6.5     0.00033589      -920.7569754042 -9.21E+02
     2 OT DIIS     0.80E-01    7.8     0.00019165      -920.7574117322 -4.36E-04
     3 OT DIIS     0.80E-01    7.8     0.00010532      -920.7575968709 -1.85E-04
     4 OT DIIS     0.80E-01    7.8     0.00003273      -920.7576650374 -6.82E-05
     5 OT DIIS     0.80E-01    7.8     0.00001223      -920.7576719261 -6.89E-06
     6 OT DIIS     0.80E-01    7.8     0.00000562      -920.7576727686 -8.42E-07

  *** SCF run converged in     6 steps ***


  Electronic density on regular grids:       -415.9999930365        0.0000069635
  Core density on regular grids:              415.9999999752       -0.0000000248
  Total charge density on r-space grids:        0.0000069387
  Total charge density g-space grids:           0.0000069387

  Overlap energy of the core charge distribution:               0.00000007817678
  Self energy of the core charge distribution:              -2388.37244906618980
  Core Hamiltonian energy:                                    696.92787142754162
  Hartree energy:                                             990.08513323588113
  Exchange-correlation energy:                               -219.39822844399950

  Total energy:                                              -920.75767276858971

 ENERGY| Total FORCE_EVAL ( QS ) energy [hartree]           -920.757672966894916

 OPT| **************************************************************************
 OPT| Step number                                                             64
 OPT| Optimization method                                                  LBFGS
 OPT| Total energy [hartree]                                     -920.7576729669
 OPT| Effective energy change [hartree]                            -0.0002495652
 OPT| Decrease in energy                                                     YES
 OPT| Used time [s]                                                       56.447
 OPT|
 OPT| Maximum step size                                             0.0128101234
 OPT| Convergence limit for maximum step size                       0.0030000000
 OPT| Maximum step size is converged                                          NO
 OPT|
 OPT| RMS step size                                                 0.0026091198
 OPT| Convergence limit for RMS step size                           0.0015000000
 OPT| RMS step size is converged                                              NO
 OPT|
 OPT| Maximum gradient                                              0.0021067399
 OPT| Convergence limit for maximum gradient                        0.0010000000
 OPT| Maximum gradient is converged                                           NO
 OPT|
 OPT| RMS gradient                                                  0.0004625539
 OPT| Convergence limit for RMS gradient                            0.0003000000
 OPT| RMS gradient is converged                                               NO
 OPT| **************************************************************************
 OPT| Estimated peak process memory after this step [MiB]                   1993

 --------------------------
 OPTIMIZATION STEP:     65
 --------------------------

 Number of electrons:                                                        416
 Number of occupied orbitals:                                                208
 Number of molecular orbitals:                                               208

 Number of orbital functions:                                                318
 Number of independent orbital functions:                                    318

 Extrapolation method: ASPC


 SCF WAVEFUNCTION OPTIMIZATION

  ----------------------------------- OT ---------------------------------------
  Minimizer      : DIIS                : direct inversion
                                         in the iterative subspace
                                         using   7 DIIS vectors
                                         safer DIIS on
  Preconditioner : FULL_SINGLE_INVERSE : inversion of 
                                         H + eS - 2*(Sc)(c^T*H*c+const)(Sc)^T
  Precond_solver : DEFAULT
  stepsize       :    0.08000000                  energy_gap     :    0.08000000
  eps_taylor     :   0.10000E-15                  max_taylor     :             4
  ----------------------------------- OT ---------------------------------------

  Step     Update method      Time    Convergence         Total energy    Change
  ------------------------------------------------------------------------------
     1 OT DIIS     0.80E-01    6.5     0.00021571      -920.7576026334 -9.21E+02
     2 OT DIIS     0.80E-01    7.8     0.00012997      -920.7577907549 -1.88E-04
     3 OT DIIS     0.80E-01    7.8     0.00006613      -920.7578871133 -9.64E-05
     4 OT DIIS     0.80E-01    7.8     0.00001863      -920.7579147873 -2.77E-05
     5 OT DIIS     0.80E-01    7.8     0.00000700      -920.7579168960 -2.11E-06

  *** SCF run converged in     5 steps ***


  Electronic density on regular grids:       -415.9999929145        0.0000070855
  Core density on regular grids:              415.9999999752       -0.0000000248
  Total charge density on r-space grids:        0.0000070607
  Total charge density g-space grids:           0.0000070607

  Overlap energy of the core charge distribution:               0.00000007779036
  Self energy of the core charge distribution:              -2388.37244906618980
  Core Hamiltonian energy:                                    696.92342254946766
  Hartree energy:                                             990.08769412329582
  Exchange-correlation energy:                               -219.39658458038073

  Total energy:                                              -920.75791689601658

 ENERGY| Total FORCE_EVAL ( QS ) energy [hartree]           -920.757917162824810

 OPT| **************************************************************************
 OPT| Step number                                                             65
 OPT| Optimization method                                                  LBFGS
 OPT| Total energy [hartree]                                     -920.7579171628
 OPT| Effective energy change [hartree]                            -0.0002441959
 OPT| Decrease in energy                                                     YES
 OPT| Used time [s]                                                       48.616
 OPT|
 OPT| Maximum step size                                             0.0462632386
 OPT| Convergence limit for maximum step size                       0.0030000000
 OPT| Maximum step size is converged                                          NO
 OPT|
 OPT| RMS step size                                                 0.0058947474
 OPT| Convergence limit for RMS step size                           0.0015000000
 OPT| RMS step size is converged                                              NO
 OPT|
 OPT| Maximum gradient                                              0.0050269854
 OPT| Convergence limit for maximum gradient                        0.0010000000
 OPT| Maximum gradient is converged                                           NO
 OPT|
 OPT| RMS gradient                                                  0.0007880976
 OPT| Convergence limit for RMS gradient                            0.0003000000
 OPT| RMS gradient is converged                                               NO
 OPT| **************************************************************************
 OPT| Estimated peak process memory after this step [MiB]                   1993

 --------------------------
 OPTIMIZATION STEP:     66
 --------------------------

 Number of electrons:                                                        416
 Number of occupied orbitals:                                                208
 Number of molecular orbitals:                                               208

 Number of orbital functions:                                                318
 Number of independent orbital functions:                                    318

 Extrapolation method: ASPC


 SCF WAVEFUNCTION OPTIMIZATION

  ----------------------------------- OT ---------------------------------------
  Minimizer      : DIIS                : direct inversion
                                         in the iterative subspace
                                         using   7 DIIS vectors
                                         safer DIIS on
  Preconditioner : FULL_SINGLE_INVERSE : inversion of 
                                         H + eS - 2*(Sc)(c^T*H*c+const)(Sc)^T
  Precond_solver : DEFAULT
  stepsize       :    0.08000000                  energy_gap     :    0.08000000
  eps_taylor     :   0.10000E-15                  max_taylor     :             4
  ----------------------------------- OT ---------------------------------------

  Step     Update method      Time    Convergence         Total energy    Change
  ------------------------------------------------------------------------------
     1 OT DIIS     0.80E-01    6.5     0.00021060      -920.7578994025 -9.21E+02
     2 OT DIIS     0.80E-01    7.8     0.00012693      -920.7580824587 -1.83E-04
     3 OT DIIS     0.80E-01    7.8     0.00005226      -920.7581844791 -1.02E-04
     4 OT DIIS     0.80E-01    7.8     0.00001777      -920.7582009431 -1.65E-05
     5 OT DIIS     0.80E-01    7.8     0.00000673      -920.7582028214 -1.88E-06

  *** SCF run converged in     5 steps ***


  Electronic density on regular grids:       -415.9999928100        0.0000071900
  Core density on regular grids:              415.9999999751       -0.0000000249
  Total charge density on r-space grids:        0.0000071651
  Total charge density g-space grids:           0.0000071651

  Overlap energy of the core charge distribution:               0.00000007895126
  Self energy of the core charge distribution:              -2388.37244906618980
  Core Hamiltonian energy:                                    696.92138531445505
  Hartree energy:                                             990.08959641615718
  Exchange-correlation energy:                               -219.39673556480790

  Total energy:                                              -920.75820282143400

 ENERGY| Total FORCE_EVAL ( QS ) energy [hartree]           -920.758203073214418

 OPT| **************************************************************************
 OPT| Step number                                                             66
 OPT| Optimization method                                                  LBFGS
 OPT| Total energy [hartree]                                     -920.7582030732
 OPT| Effective energy change [hartree]                            -0.0002859104
 OPT| Decrease in energy                                                     YES
 OPT| Used time [s]                                                       48.706
 OPT|
 OPT| Maximum step size                                             0.0412568109
 OPT| Convergence limit for maximum step size                       0.0030000000
 OPT| Maximum step size is converged                                          NO
 OPT|
 OPT| RMS step size                                                 0.0053693872
 OPT| Convergence limit for RMS step size                           0.0015000000
 OPT| RMS step size is converged                                              NO
 OPT|
 OPT| Maximum gradient                                              0.0042877133
 OPT| Convergence limit for maximum gradient                        0.0010000000
 OPT| Maximum gradient is converged                                           NO
 OPT|
 OPT| RMS gradient                                                  0.0006740352
 OPT| Convergence limit for RMS gradient                            0.0003000000
 OPT| RMS gradient is converged                                               NO
 OPT| **************************************************************************
 OPT| Estimated peak process memory after this step [MiB]                   1993

 --------------------------
 OPTIMIZATION STEP:     67
 --------------------------

 Number of electrons:                                                        416
 Number of occupied orbitals:                                                208
 Number of molecular orbitals:                                               208

 Number of orbital functions:                                                318
 Number of independent orbital functions:                                    318

 Extrapolation method: ASPC


 SCF WAVEFUNCTION OPTIMIZATION

  ----------------------------------- OT ---------------------------------------
  Minimizer      : DIIS                : direct inversion
                                         in the iterative subspace
                                         using   7 DIIS vectors
                                         safer DIIS on
  Preconditioner : FULL_SINGLE_INVERSE : inversion of 
                                         H + eS - 2*(Sc)(c^T*H*c+const)(Sc)^T
  Precond_solver : DEFAULT
  stepsize       :    0.08000000                  energy_gap     :    0.08000000
  eps_taylor     :   0.10000E-15                  max_taylor     :             4
  ----------------------------------- OT ---------------------------------------

  Step     Update method      Time    Convergence         Total energy    Change
  ------------------------------------------------------------------------------
     1 OT DIIS     0.80E-01    6.5     0.00019112      -920.7582842292 -9.21E+02
     2 OT DIIS     0.80E-01    7.8     0.00011280      -920.7584332320 -1.49E-04
     3 OT DIIS     0.80E-01    7.8     0.00004772      -920.7585111592 -7.79E-05
     4 OT DIIS     0.80E-01    7.8     0.00001643      -920.7585250051 -1.38E-05
     5 OT DIIS     0.80E-01    7.8     0.00000580      -920.7585266635 -1.66E-06

  *** SCF run converged in     5 steps ***


  Electronic density on regular grids:       -415.9999926947        0.0000073053
  Core density on regular grids:              415.9999999751       -0.0000000249
  Total charge density on r-space grids:        0.0000072805
  Total charge density g-space grids:           0.0000072805

  Overlap energy of the core charge distribution:               0.00000007793333
  Self energy of the core charge distribution:              -2388.37244906618980
  Core Hamiltonian energy:                                    696.91381287263198
  Hartree energy:                                             990.09329555068666
  Exchange-correlation energy:                               -219.39318609859029

  Total energy:                                              -920.75852666352819

 ENERGY| Total FORCE_EVAL ( QS ) energy [hartree]           -920.758526853441481

 OPT| **************************************************************************
 OPT| Step number                                                             67
 OPT| Optimization method                                                  LBFGS
 OPT| Total energy [hartree]                                     -920.7585268534
 OPT| Effective energy change [hartree]                            -0.0003237802
 OPT| Decrease in energy                                                     YES
 OPT| Used time [s]                                                       48.700
 OPT|
 OPT| Maximum step size                                             0.0615179271
 OPT| Convergence limit for maximum step size                       0.0030000000
 OPT| Maximum step size is converged                                          NO
 OPT|
 OPT| RMS step size                                                 0.0074215235
 OPT| Convergence limit for RMS step size                           0.0015000000
 OPT| RMS step size is converged                                              NO
 OPT|
 OPT| Maximum gradient                                              0.0040463089
 OPT| Convergence limit for maximum gradient                        0.0010000000
 OPT| Maximum gradient is converged                                           NO
 OPT|
 OPT| RMS gradient                                                  0.0006895718
 OPT| Convergence limit for RMS gradient                            0.0003000000
 OPT| RMS gradient is converged                                               NO
 OPT| **************************************************************************
 OPT| Estimated peak process memory after this step [MiB]                   1993

 --------------------------
 OPTIMIZATION STEP:     68
 --------------------------

 Number of electrons:                                                        416
 Number of occupied orbitals:                                                208
 Number of molecular orbitals:                                               208

 Number of orbital functions:                                                318
 Number of independent orbital functions:                                    318

 Extrapolation method: ASPC


 SCF WAVEFUNCTION OPTIMIZATION

  ----------------------------------- OT ---------------------------------------
  Minimizer      : DIIS                : direct inversion
                                         in the iterative subspace
                                         using   7 DIIS vectors
                                         safer DIIS on
  Preconditioner : FULL_SINGLE_INVERSE : inversion of 
                                         H + eS - 2*(Sc)(c^T*H*c+const)(Sc)^T
  Precond_solver : DEFAULT
  stepsize       :    0.08000000                  energy_gap     :    0.08000000
  eps_taylor     :   0.10000E-15                  max_taylor     :             4
  ----------------------------------- OT ---------------------------------------

  Step     Update method      Time    Convergence         Total energy    Change
  ------------------------------------------------------------------------------
     1 OT DIIS     0.80E-01    6.5     0.00015576      -920.7587144004 -9.21E+02
     2 OT DIIS     0.80E-01    7.8     0.00008590      -920.7588088304 -9.44E-05
     3 OT DIIS     0.80E-01    7.8     0.00004177      -920.7588480557 -3.92E-05
     4 OT DIIS     0.80E-01    7.8     0.00001469      -920.7588581429 -1.01E-05
     5 OT DIIS     0.80E-01    7.8     0.00000538      -920.7588595087 -1.37E-06

  *** SCF run converged in     5 steps ***


  Electronic density on regular grids:       -415.9999926295        0.0000073705
  Core density on regular grids:              415.9999999752       -0.0000000248
  Total charge density on r-space grids:        0.0000073457
  Total charge density g-space grids:           0.0000073457

  Overlap energy of the core charge distribution:               0.00000007856986
  Self energy of the core charge distribution:              -2388.37244906618980
  Core Hamiltonian energy:                                    696.92214746641037
  Hartree energy:                                             990.08682993419279
  Exchange-correlation energy:                               -219.39538792168980

  Total energy:                                              -920.75885950870645

 ENERGY| Total FORCE_EVAL ( QS ) energy [hartree]           -920.758859672732001

 OPT| **************************************************************************
 OPT| Step number                                                             68
 OPT| Optimization method                                                  LBFGS
 OPT| Total energy [hartree]                                     -920.7588596727
 OPT| Effective energy change [hartree]                            -0.0003328193
 OPT| Decrease in energy                                                     YES
 OPT| Used time [s]                                                       48.683
 OPT|
 OPT| Maximum step size                                             0.0565966517
 OPT| Convergence limit for maximum step size                       0.0030000000
 OPT| Maximum step size is converged                                          NO
 OPT|
 OPT| RMS step size                                                 0.0071235868
 OPT| Convergence limit for RMS step size                           0.0015000000
 OPT| RMS step size is converged                                              NO
 OPT|
 OPT| Maximum gradient                                              0.0030317054
 OPT| Convergence limit for maximum gradient                        0.0010000000
 OPT| Maximum gradient is converged                                           NO
 OPT|
 OPT| RMS gradient                                                  0.0006879371
 OPT| Convergence limit for RMS gradient                            0.0003000000
 OPT| RMS gradient is converged                                               NO
 OPT| **************************************************************************
 OPT| Estimated peak process memory after this step [MiB]                   1993

 --------------------------
 OPTIMIZATION STEP:     69
 --------------------------

 Number of electrons:                                                        416
 Number of occupied orbitals:                                                208
 Number of molecular orbitals:                                               208

 Number of orbital functions:                                                318
 Number of independent orbital functions:                                    318

 Extrapolation method: ASPC


 SCF WAVEFUNCTION OPTIMIZATION

  ----------------------------------- OT ---------------------------------------
  Minimizer      : DIIS                : direct inversion
                                         in the iterative subspace
                                         using   7 DIIS vectors
                                         safer DIIS on
  Preconditioner : FULL_SINGLE_INVERSE : inversion of 
                                         H + eS - 2*(Sc)(c^T*H*c+const)(Sc)^T
  Precond_solver : DEFAULT
  stepsize       :    0.08000000                  energy_gap     :    0.08000000
  eps_taylor     :   0.10000E-15                  max_taylor     :             4
  ----------------------------------- OT ---------------------------------------

  Step     Update method      Time    Convergence         Total energy    Change
  ------------------------------------------------------------------------------
     1 OT DIIS     0.80E-01    6.5     0.00015303      -920.7589660359 -9.21E+02
     2 OT DIIS     0.80E-01    7.8     0.00007987      -920.7590527757 -8.67E-05
     3 OT DIIS     0.80E-01    7.8     0.00004211      -920.7590829416 -3.02E-05
     4 OT DIIS     0.80E-01    7.8     0.00001453      -920.7590933065 -1.04E-05
     5 OT DIIS     0.80E-01    7.8     0.00000584      -920.7590946331 -1.33E-06

  *** SCF run converged in     5 steps ***


  Electronic density on regular grids:       -415.9999926505        0.0000073495
  Core density on regular grids:              415.9999999753       -0.0000000247
  Total charge density on r-space grids:        0.0000073248
  Total charge density g-space grids:           0.0000073248

  Overlap energy of the core charge distribution:               0.00000007822271
  Self energy of the core charge distribution:              -2388.37244906618980
  Core Hamiltonian energy:                                    696.93983636997075
  Hartree energy:                                             990.07231840124007
  Exchange-correlation energy:                               -219.39880041637599

  Total energy:                                              -920.75909463313224

 ENERGY| Total FORCE_EVAL ( QS ) energy [hartree]           -920.759094830481672

 OPT| **************************************************************************
 OPT| Step number                                                             69
 OPT| Optimization method                                                  LBFGS
 OPT| Total energy [hartree]                                     -920.7590948305
 OPT| Effective energy change [hartree]                            -0.0002351577
 OPT| Decrease in energy                                                     YES
 OPT| Used time [s]                                                       48.656
 OPT|
 OPT| Maximum step size                                             0.0417553640
 OPT| Convergence limit for maximum step size                       0.0030000000
 OPT| Maximum step size is converged                                          NO
 OPT|
 OPT| RMS step size                                                 0.0053696740
 OPT| Convergence limit for RMS step size                           0.0015000000
 OPT| RMS step size is converged                                              NO
 OPT|
 OPT| Maximum gradient                                              0.0040611308
 OPT| Convergence limit for maximum gradient                        0.0010000000
 OPT| Maximum gradient is converged                                           NO
 OPT|
 OPT| RMS gradient                                                  0.0008171289
 OPT| Convergence limit for RMS gradient                            0.0003000000
 OPT| RMS gradient is converged                                               NO
 OPT| **************************************************************************
 OPT| Estimated peak process memory after this step [MiB]                   1993

 --------------------------
 OPTIMIZATION STEP:     70
 --------------------------

 Number of electrons:                                                        416
 Number of occupied orbitals:                                                208
 Number of molecular orbitals:                                               208

 Number of orbital functions:                                                318
 Number of independent orbital functions:                                    318

 Extrapolation method: ASPC


 SCF WAVEFUNCTION OPTIMIZATION

  ----------------------------------- OT ---------------------------------------
  Minimizer      : DIIS                : direct inversion
                                         in the iterative subspace
                                         using   7 DIIS vectors
                                         safer DIIS on
  Preconditioner : FULL_SINGLE_INVERSE : inversion of 
                                         H + eS - 2*(Sc)(c^T*H*c+const)(Sc)^T
  Precond_solver : DEFAULT
  stepsize       :    0.08000000                  energy_gap     :    0.08000000
  eps_taylor     :   0.10000E-15                  max_taylor     :             4
  ----------------------------------- OT ---------------------------------------

  Step     Update method      Time    Convergence         Total energy    Change
  ------------------------------------------------------------------------------
     1 OT DIIS     0.80E-01    6.5     0.00018100      -920.7591622827 -9.21E+02
     2 OT DIIS     0.80E-01    7.8     0.00009725      -920.7592867356 -1.24E-04
     3 OT DIIS     0.80E-01    7.8     0.00005044      -920.7593347040 -4.80E-05
     4 OT DIIS     0.80E-01    7.8     0.00001819      -920.7593501712 -1.55E-05
     5 OT DIIS     0.80E-01    7.8     0.00000697      -920.7593522779 -2.11E-06

  *** SCF run converged in     5 steps ***


  Electronic density on regular grids:       -415.9999926984        0.0000073016
  Core density on regular grids:              415.9999999753       -0.0000000247
  Total charge density on r-space grids:        0.0000072768
  Total charge density g-space grids:           0.0000072768

  Overlap energy of the core charge distribution:               0.00000007827493
  Self energy of the core charge distribution:              -2388.37244906618980
  Core Hamiltonian energy:                                    696.95735365353357
  Hartree energy:                                             990.05895297094344
  Exchange-correlation energy:                               -219.40320991443417

  Total energy:                                              -920.75935227787227

 ENERGY| Total FORCE_EVAL ( QS ) energy [hartree]           -920.759352559140666

 OPT| **************************************************************************
 OPT| Step number                                                             70
 OPT| Optimization method                                                  LBFGS
 OPT| Total energy [hartree]                                     -920.7593525591
 OPT| Effective energy change [hartree]                            -0.0002577287
 OPT| Decrease in energy                                                     YES
 OPT| Used time [s]                                                       48.695
 OPT|
 OPT| Maximum step size                                             0.0112064904
 OPT| Convergence limit for maximum step size                       0.0030000000
 OPT| Maximum step size is converged                                          NO
 OPT|
 OPT| RMS step size                                                 0.0025301951
 OPT| Convergence limit for RMS step size                           0.0015000000
 OPT| RMS step size is converged                                              NO
 OPT|
 OPT| Maximum gradient                                              0.0027086366
 OPT| Convergence limit for maximum gradient                        0.0010000000
 OPT| Maximum gradient is converged                                           NO
 OPT|
 OPT| RMS gradient                                                  0.0005599647
 OPT| Convergence limit for RMS gradient                            0.0003000000
 OPT| RMS gradient is converged                                               NO
 OPT| **************************************************************************
 OPT| Estimated peak process memory after this step [MiB]                   1993

 --------------------------
 OPTIMIZATION STEP:     71
 --------------------------

 Number of electrons:                                                        416
 Number of occupied orbitals:                                                208
 Number of molecular orbitals:                                               208

 Number of orbital functions:                                                318
 Number of independent orbital functions:                                    318

 Extrapolation method: ASPC


 SCF WAVEFUNCTION OPTIMIZATION

  ----------------------------------- OT ---------------------------------------
  Minimizer      : DIIS                : direct inversion
                                         in the iterative subspace
                                         using   7 DIIS vectors
                                         safer DIIS on
  Preconditioner : FULL_SINGLE_INVERSE : inversion of 
                                         H + eS - 2*(Sc)(c^T*H*c+const)(Sc)^T
  Precond_solver : DEFAULT
  stepsize       :    0.08000000                  energy_gap     :    0.08000000
  eps_taylor     :   0.10000E-15                  max_taylor     :             4
  ----------------------------------- OT ---------------------------------------

  Step     Update method      Time    Convergence         Total energy    Change
  ------------------------------------------------------------------------------
     1 OT DIIS     0.80E-01    6.5     0.00020588      -920.7592579025 -9.21E+02
     2 OT DIIS     0.80E-01    7.8     0.00012117      -920.7594302287 -1.72E-04
     3 OT DIIS     0.80E-01    7.8     0.00005336      -920.7595192958 -8.91E-05
     4 OT DIIS     0.80E-01    7.8     0.00001913      -920.7595366460 -1.74E-05
     5 OT DIIS     0.80E-01    7.8     0.00000711      -920.7595388357 -2.19E-06

  *** SCF run converged in     5 steps ***


  Electronic density on regular grids:       -415.9999927255        0.0000072745
  Core density on regular grids:              415.9999999753       -0.0000000247
  Total charge density on r-space grids:        0.0000072498
  Total charge density g-space grids:           0.0000072498

  Overlap energy of the core charge distribution:               0.00000007841819
  Self energy of the core charge distribution:              -2388.37244906618980
  Core Hamiltonian energy:                                    696.96515930612827
  Hartree energy:                                             990.05301956856363
  Exchange-correlation energy:                               -219.40526872262217

  Total energy:                                              -920.75953883570207

 ENERGY| Total FORCE_EVAL ( QS ) energy [hartree]           -920.759539116845872

 OPT| **************************************************************************
 OPT| Step number                                                             71
 OPT| Optimization method                                                  LBFGS
 OPT| Total energy [hartree]                                     -920.7595391168
 OPT| Effective energy change [hartree]                            -0.0001865577
 OPT| Decrease in energy                                                     YES
 OPT| Used time [s]                                                       48.722
 OPT|
 OPT| Maximum step size                                             0.0252882676
 OPT| Convergence limit for maximum step size                       0.0030000000
 OPT| Maximum step size is converged                                          NO
 OPT|
 OPT| RMS step size                                                 0.0031847948
 OPT| Convergence limit for RMS step size                           0.0015000000
 OPT| RMS step size is converged                                              NO
 OPT|
 OPT| Maximum gradient                                              0.0026103943
 OPT| Convergence limit for maximum gradient                        0.0010000000
 OPT| Maximum gradient is converged                                           NO
 OPT|
 OPT| RMS gradient                                                  0.0005318693
 OPT| Convergence limit for RMS gradient                            0.0003000000
 OPT| RMS gradient is converged                                               NO
 OPT| **************************************************************************
 OPT| Estimated peak process memory after this step [MiB]                   1993

 --------------------------
 OPTIMIZATION STEP:     72
 --------------------------

 Number of electrons:                                                        416
 Number of occupied orbitals:                                                208
 Number of molecular orbitals:                                               208

 Number of orbital functions:                                                318
 Number of independent orbital functions:                                    318

 Extrapolation method: ASPC


 SCF WAVEFUNCTION OPTIMIZATION

  ----------------------------------- OT ---------------------------------------
  Minimizer      : DIIS                : direct inversion
                                         in the iterative subspace
                                         using   7 DIIS vectors
                                         safer DIIS on
  Preconditioner : FULL_SINGLE_INVERSE : inversion of 
                                         H + eS - 2*(Sc)(c^T*H*c+const)(Sc)^T
  Precond_solver : DEFAULT
  stepsize       :    0.08000000                  energy_gap     :    0.08000000
  eps_taylor     :   0.10000E-15                  max_taylor     :             4
  ----------------------------------- OT ---------------------------------------

  Step     Update method      Time    Convergence         Total energy    Change
  ------------------------------------------------------------------------------
     1 OT DIIS     0.80E-01    6.5     0.00011936      -920.7597225777 -9.21E+02
     2 OT DIIS     0.80E-01    7.8     0.00006774      -920.7597793246 -5.67E-05
     3 OT DIIS     0.80E-01    7.8     0.00003160      -920.7598054266 -2.61E-05
     4 OT DIIS     0.80E-01    7.9     0.00001218      -920.7598110653 -5.64E-06
     5 OT DIIS     0.80E-01    7.8     0.00000463      -920.7598119702 -9.05E-07

  *** SCF run converged in     5 steps ***


  Electronic density on regular grids:       -415.9999928150        0.0000071850
  Core density on regular grids:              415.9999999753       -0.0000000247
  Total charge density on r-space grids:        0.0000071603
  Total charge density g-space grids:           0.0000071603

  Overlap energy of the core charge distribution:               0.00000007872726
  Self energy of the core charge distribution:              -2388.37244906618980
  Core Hamiltonian energy:                                    696.96990952364604
  Hartree energy:                                             990.04886313128202
  Exchange-correlation energy:                               -219.40613563767573

  Total energy:                                              -920.75981197021019

 ENERGY| Total FORCE_EVAL ( QS ) energy [hartree]           -920.759812097113468

 OPT| **************************************************************************
 OPT| Step number                                                             72
 OPT| Optimization method                                                  LBFGS
 OPT| Total energy [hartree]                                     -920.7598120971
 OPT| Effective energy change [hartree]                            -0.0002729803
 OPT| Decrease in energy                                                     YES
 OPT| Used time [s]                                                       48.721
 OPT|
 OPT| Maximum step size                                             0.0671587943
 OPT| Convergence limit for maximum step size                       0.0030000000
 OPT| Maximum step size is converged                                          NO
 OPT|
 OPT| RMS step size                                                 0.0075633283
 OPT| Convergence limit for RMS step size                           0.0015000000
 OPT| RMS step size is converged                                              NO
 OPT|
 OPT| Maximum gradient                                              0.0031032830
 OPT| Convergence limit for maximum gradient                        0.0010000000
 OPT| Maximum gradient is converged                                           NO
 OPT|
 OPT| RMS gradient                                                  0.0006127145
 OPT| Convergence limit for RMS gradient                            0.0003000000
 OPT| RMS gradient is converged                                               NO
 OPT| **************************************************************************
 OPT| Estimated peak process memory after this step [MiB]                   1993

 --------------------------
 OPTIMIZATION STEP:     73
 --------------------------

 Number of electrons:                                                        416
 Number of occupied orbitals:                                                208
 Number of molecular orbitals:                                               208

 Number of orbital functions:                                                318
 Number of independent orbital functions:                                    318

 Extrapolation method: ASPC


 SCF WAVEFUNCTION OPTIMIZATION

  ----------------------------------- OT ---------------------------------------
  Minimizer      : DIIS                : direct inversion
                                         in the iterative subspace
                                         using   7 DIIS vectors
                                         safer DIIS on
  Preconditioner : FULL_SINGLE_INVERSE : inversion of 
                                         H + eS - 2*(Sc)(c^T*H*c+const)(Sc)^T
  Precond_solver : DEFAULT
  stepsize       :    0.08000000                  energy_gap     :    0.08000000
  eps_taylor     :   0.10000E-15                  max_taylor     :             4
  ----------------------------------- OT ---------------------------------------

  Step     Update method      Time    Convergence         Total energy    Change
  ------------------------------------------------------------------------------
     1 OT DIIS     0.80E-01    6.5     0.00027283      -920.7596739725 -9.21E+02
     2 OT DIIS     0.80E-01    7.8     0.00017337      -920.7599913331 -3.17E-04
     3 OT DIIS     0.80E-01    7.8     0.00005739      -920.7602047831 -2.13E-04
     4 OT DIIS     0.80E-01    7.8     0.00001880      -920.7602241081 -1.93E-05
     5 OT DIIS     0.80E-01    7.8     0.00000742      -920.7602259886 -1.88E-06

  *** SCF run converged in     5 steps ***


  Electronic density on regular grids:       -415.9999929971        0.0000070029
  Core density on regular grids:              415.9999999753       -0.0000000247
  Total charge density on r-space grids:        0.0000069782
  Total charge density g-space grids:           0.0000069782

  Overlap energy of the core charge distribution:               0.00000007665736
  Self energy of the core charge distribution:              -2388.37244906618980
  Core Hamiltonian energy:                                    696.94796773012990
  Hartree energy:                                             990.06208677421796
  Exchange-correlation energy:                               -219.39783150344627

  Total energy:                                              -920.76022598863096

 ENERGY| Total FORCE_EVAL ( QS ) energy [hartree]           -920.760226273882836

 OPT| **************************************************************************
 OPT| Step number                                                             73
 OPT| Optimization method                                                  LBFGS
 OPT| Total energy [hartree]                                     -920.7602262739
 OPT| Effective energy change [hartree]                            -0.0004141768
 OPT| Decrease in energy                                                     YES
 OPT| Used time [s]                                                       48.699
 OPT|
 OPT| Maximum step size                                             0.1686802344
 OPT| Convergence limit for maximum step size                       0.0030000000
 OPT| Maximum step size is converged                                          NO
 OPT|
 OPT| RMS step size                                                 0.0187792616
 OPT| Convergence limit for RMS step size                           0.0015000000
 OPT| RMS step size is converged                                              NO
 OPT|
 OPT| Maximum gradient                                              0.0085089298
 OPT| Convergence limit for maximum gradient                        0.0010000000
 OPT| Maximum gradient is converged                                           NO
 OPT|
 OPT| RMS gradient                                                  0.0013197302
 OPT| Convergence limit for RMS gradient                            0.0003000000
 OPT| RMS gradient is converged                                               NO
 OPT| **************************************************************************
 OPT| Estimated peak process memory after this step [MiB]                   1993

 --------------------------
 OPTIMIZATION STEP:     74
 --------------------------

 Number of electrons:                                                        416
 Number of occupied orbitals:                                                208
 Number of molecular orbitals:                                               208

 Number of orbital functions:                                                318
 Number of independent orbital functions:                                    318

 Extrapolation method: ASPC


 SCF WAVEFUNCTION OPTIMIZATION

  ----------------------------------- OT ---------------------------------------
  Minimizer      : DIIS                : direct inversion
                                         in the iterative subspace
                                         using   7 DIIS vectors
                                         safer DIIS on
  Preconditioner : FULL_SINGLE_INVERSE : inversion of 
                                         H + eS - 2*(Sc)(c^T*H*c+const)(Sc)^T
  Precond_solver : DEFAULT
  stepsize       :    0.08000000                  energy_gap     :    0.08000000
  eps_taylor     :   0.10000E-15                  max_taylor     :             4
  ----------------------------------- OT ---------------------------------------

  Step     Update method      Time    Convergence         Total energy    Change
  ------------------------------------------------------------------------------
     1 OT DIIS     0.80E-01    6.5     0.00062311      -920.7579668114 -9.21E+02
     2 OT DIIS     0.80E-01    7.9     0.00038988      -920.7595907092 -1.62E-03
     3 OT DIIS     0.80E-01    7.8     0.00016697      -920.7605811293 -9.90E-04
     4 OT DIIS     0.80E-01    7.8     0.00004420      -920.7607609161 -1.80E-04
     5 OT DIIS     0.80E-01    7.8     0.00001727      -920.7607721074 -1.12E-05
     6 OT DIIS     0.80E-01    7.8     0.00000818      -920.7607735893 -1.48E-06

  *** SCF run converged in     6 steps ***


  Electronic density on regular grids:       -415.9999930945        0.0000069055
  Core density on regular grids:              415.9999999754       -0.0000000246
  Total charge density on r-space grids:        0.0000068809
  Total charge density g-space grids:           0.0000068809

  Overlap energy of the core charge distribution:               0.00000007903904
  Self energy of the core charge distribution:              -2388.37244906618980
  Core Hamiltonian energy:                                    696.94079297112978
  Hartree energy:                                             990.06898294262646
  Exchange-correlation energy:                               -219.39810051589262

  Total energy:                                              -920.76077358928706

 ENERGY| Total FORCE_EVAL ( QS ) energy [hartree]           -920.760773985595051

 OPT| **************************************************************************
 OPT| Step number                                                             74
 OPT| Optimization method                                                  LBFGS
 OPT| Total energy [hartree]                                     -920.7607739856
 OPT| Effective energy change [hartree]                            -0.0005477117
 OPT| Decrease in energy                                                     YES
 OPT| Used time [s]                                                       56.573
 OPT|
 OPT| Maximum step size                                             0.0919546791
 OPT| Convergence limit for maximum step size                       0.0030000000
 OPT| Maximum step size is converged                                          NO
 OPT|
 OPT| RMS step size                                                 0.0106042912
 OPT| Convergence limit for RMS step size                           0.0015000000
 OPT| RMS step size is converged                                              NO
 OPT|
 OPT| Maximum gradient                                              0.0054560763
 OPT| Convergence limit for maximum gradient                        0.0010000000
 OPT| Maximum gradient is converged                                           NO
 OPT|
 OPT| RMS gradient                                                  0.0008663968
 OPT| Convergence limit for RMS gradient                            0.0003000000
 OPT| RMS gradient is converged                                               NO
 OPT| **************************************************************************
 OPT| Estimated peak process memory after this step [MiB]                   1993

 --------------------------
 OPTIMIZATION STEP:     75
 --------------------------

 Number of electrons:                                                        416
 Number of occupied orbitals:                                                208
 Number of molecular orbitals:                                               208

 Number of orbital functions:                                                318
 Number of independent orbital functions:                                    318

 Extrapolation method: ASPC


 SCF WAVEFUNCTION OPTIMIZATION

  ----------------------------------- OT ---------------------------------------
  Minimizer      : DIIS                : direct inversion
                                         in the iterative subspace
                                         using   7 DIIS vectors
                                         safer DIIS on
  Preconditioner : FULL_SINGLE_INVERSE : inversion of 
                                         H + eS - 2*(Sc)(c^T*H*c+const)(Sc)^T
  Precond_solver : DEFAULT
  stepsize       :    0.08000000                  energy_gap     :    0.08000000
  eps_taylor     :   0.10000E-15                  max_taylor     :             4
  ----------------------------------- OT ---------------------------------------

  Step     Update method      Time    Convergence         Total energy    Change
  ------------------------------------------------------------------------------
     1 OT DIIS     0.80E-01    6.5     0.00062519      -920.7584334706 -9.21E+02
     2 OT DIIS     0.80E-01    7.8     0.00039359      -920.7600835871 -1.65E-03
     3 OT DIIS     0.80E-01    7.8     0.00014903      -920.7611334396 -1.05E-03
     4 OT DIIS     0.80E-01    7.8     0.00004416      -920.7612743922 -1.41E-04
     5 OT DIIS     0.80E-01    7.8     0.00001613      -920.7612850086 -1.06E-05
     6 OT DIIS     0.80E-01    7.9     0.00000771      -920.7612863159 -1.31E-06

  *** SCF run converged in     6 steps ***


  Electronic density on regular grids:       -415.9999930173        0.0000069827
  Core density on regular grids:              415.9999999753       -0.0000000247
  Total charge density on r-space grids:        0.0000069581
  Total charge density g-space grids:           0.0000069581

  Overlap energy of the core charge distribution:               0.00000007735726
  Self energy of the core charge distribution:              -2388.37244906618980
  Core Hamiltonian energy:                                    696.91570132393770
  Hartree energy:                                             990.08522461783411
  Exchange-correlation energy:                               -219.38976326887558

  Total energy:                                              -920.76128631593633

 ENERGY| Total FORCE_EVAL ( QS ) energy [hartree]           -920.761286666591673

 OPT| **************************************************************************
 OPT| Step number                                                             75
 OPT| Optimization method                                                  LBFGS
 OPT| Total energy [hartree]                                     -920.7612866666
 OPT| Effective energy change [hartree]                            -0.0005126810
 OPT| Decrease in energy                                                     YES
 OPT| Used time [s]                                                       56.605
 OPT|
 OPT| Maximum step size                                             0.1286117947
 OPT| Convergence limit for maximum step size                       0.0030000000
 OPT| Maximum step size is converged                                          NO
 OPT|
 OPT| RMS step size                                                 0.0152867267
 OPT| Convergence limit for RMS step size                           0.0015000000
 OPT| RMS step size is converged                                              NO
 OPT|
 OPT| Maximum gradient                                              0.0095118637
 OPT| Convergence limit for maximum gradient                        0.0010000000
 OPT| Maximum gradient is converged                                           NO
 OPT|
 OPT| RMS gradient                                                  0.0011322667
 OPT| Convergence limit for RMS gradient                            0.0003000000
 OPT| RMS gradient is converged                                               NO
 OPT| **************************************************************************
 OPT| Estimated peak process memory after this step [MiB]                   1993

 --------------------------
 OPTIMIZATION STEP:     76
 --------------------------

 Number of electrons:                                                        416
 Number of occupied orbitals:                                                208
 Number of molecular orbitals:                                               208

 Number of orbital functions:                                                318
 Number of independent orbital functions:                                    318

 Extrapolation method: ASPC


 SCF WAVEFUNCTION OPTIMIZATION

  ----------------------------------- OT ---------------------------------------
  Minimizer      : DIIS                : direct inversion
                                         in the iterative subspace
                                         using   7 DIIS vectors
                                         safer DIIS on
  Preconditioner : FULL_SINGLE_INVERSE : inversion of 
                                         H + eS - 2*(Sc)(c^T*H*c+const)(Sc)^T
  Precond_solver : DEFAULT
  stepsize       :    0.08000000                  energy_gap     :    0.08000000
  eps_taylor     :   0.10000E-15                  max_taylor     :             4
  ----------------------------------- OT ---------------------------------------

  Step     Update method      Time    Convergence         Total energy    Change
  ------------------------------------------------------------------------------
     1 OT DIIS     0.80E-01    6.5     0.00036303      -920.7609798452 -9.21E+02
     2 OT DIIS     0.80E-01    7.8     0.00018479      -920.7614441793 -4.64E-04
     3 OT DIIS     0.80E-01    7.9     0.00010515      -920.7615905895 -1.46E-04
     4 OT DIIS     0.80E-01    7.8     0.00003527      -920.7616588877 -6.83E-05
     5 OT DIIS     0.80E-01    7.8     0.00001311      -920.7616670031 -8.12E-06
     6 OT DIIS     0.80E-01    7.8     0.00000522      -920.7616679631 -9.60E-07

  *** SCF run converged in     6 steps ***


  Electronic density on regular grids:       -415.9999930628        0.0000069372
  Core density on regular grids:              415.9999999753       -0.0000000247
  Total charge density on r-space grids:        0.0000069125
  Total charge density g-space grids:           0.0000069125

  Overlap energy of the core charge distribution:               0.00000007562433
  Self energy of the core charge distribution:              -2388.37244906618980
  Core Hamiltonian energy:                                    696.88825468284313
  Hartree energy:                                             990.10328131934023
  Exchange-correlation energy:                               -219.38075497474617

  Total energy:                                              -920.76166796312816

 ENERGY| Total FORCE_EVAL ( QS ) energy [hartree]           -920.761668113182282

 OPT| **************************************************************************
 OPT| Step number                                                             76
 OPT| Optimization method                                                  LBFGS
 OPT| Total energy [hartree]                                     -920.7616681132
 OPT| Effective energy change [hartree]                            -0.0003814466
 OPT| Decrease in energy                                                     YES
 OPT| Used time [s]                                                       56.573
 OPT|
 OPT| Maximum step size                                             0.1859581239
 OPT| Convergence limit for maximum step size                       0.0030000000
 OPT| Maximum step size is converged                                          NO
 OPT|
 OPT| RMS step size                                                 0.0209451528
 OPT| Convergence limit for RMS step size                           0.0015000000
 OPT| RMS step size is converged                                              NO
 OPT|
 OPT| Maximum gradient                                              0.0068250224
 OPT| Convergence limit for maximum gradient                        0.0010000000
 OPT| Maximum gradient is converged                                           NO
 OPT|
 OPT| RMS gradient                                                  0.0015834705
 OPT| Convergence limit for RMS gradient                            0.0003000000
 OPT| RMS gradient is converged                                               NO
 OPT| **************************************************************************
 OPT| Estimated peak process memory after this step [MiB]                   1993

 --------------------------
 OPTIMIZATION STEP:     77
 --------------------------

 Number of electrons:                                                        416
 Number of occupied orbitals:                                                208
 Number of molecular orbitals:                                               208

 Number of orbital functions:                                                318
 Number of independent orbital functions:                                    318

 Extrapolation method: ASPC


 SCF WAVEFUNCTION OPTIMIZATION

  ----------------------------------- OT ---------------------------------------
  Minimizer      : DIIS                : direct inversion
                                         in the iterative subspace
                                         using   7 DIIS vectors
                                         safer DIIS on
  Preconditioner : FULL_SINGLE_INVERSE : inversion of 
                                         H + eS - 2*(Sc)(c^T*H*c+const)(Sc)^T
  Precond_solver : DEFAULT
  stepsize       :    0.08000000                  energy_gap     :    0.08000000
  eps_taylor     :   0.10000E-15                  max_taylor     :             4
  ----------------------------------- OT ---------------------------------------

  Step     Update method      Time    Convergence         Total energy    Change
  ------------------------------------------------------------------------------
     1 OT DIIS     0.80E-01    6.5     0.00138750      -920.7480383677 -9.21E+02
     2 OT DIIS     0.80E-01    7.9     0.00088261      -920.7562369106 -8.20E-03
     3 OT DIIS     0.80E-01    7.8     0.00030135      -920.7616994945 -5.46E-03
     4 OT DIIS     0.80E-01    7.8     0.00008396      -920.7622282690 -5.29E-04
     5 OT DIIS     0.80E-01    7.8     0.00003495      -920.7622669236 -3.87E-05
     6 OT DIIS     0.80E-01    7.8     0.00001759      -920.7622733278 -6.40E-06
     7 OT DIIS     0.80E-01    7.9     0.00000674      -920.7622752722 -1.94E-06

  *** SCF run converged in     7 steps ***


  Electronic density on regular grids:       -415.9999928744        0.0000071256
  Core density on regular grids:              415.9999999753       -0.0000000247
  Total charge density on r-space grids:        0.0000071010
  Total charge density g-space grids:           0.0000071010

  Overlap energy of the core charge distribution:               0.00000008206477
  Self energy of the core charge distribution:              -2388.37244906618980
  Core Hamiltonian energy:                                    696.97291055638902
  Hartree energy:                                             990.04441327262828
  Exchange-correlation energy:                               -219.40715011710091

  Total energy:                                              -920.76227527220885

 ENERGY| Total FORCE_EVAL ( QS ) energy [hartree]           -920.762275568788027

 OPT| **************************************************************************
 OPT| Step number                                                             77
 OPT| Optimization method                                                  LBFGS
 OPT| Total energy [hartree]                                     -920.7622755688
 OPT| Effective energy change [hartree]                            -0.0006074556
 OPT| Decrease in energy                                                     YES
 OPT| Used time [s]                                                       64.451
 OPT|
 OPT| Maximum step size                                             0.0891329491
 OPT| Convergence limit for maximum step size                       0.0030000000
 OPT| Maximum step size is converged                                          NO
 OPT|
 OPT| RMS step size                                                 0.0114463992
 OPT| Convergence limit for RMS step size                           0.0015000000
 OPT| RMS step size is converged                                              NO
 OPT|
 OPT| Maximum gradient                                              0.0095789691
 OPT| Convergence limit for maximum gradient                        0.0010000000
 OPT| Maximum gradient is converged                                           NO
 OPT|
 OPT| RMS gradient                                                  0.0015678189
 OPT| Convergence limit for RMS gradient                            0.0003000000
 OPT| RMS gradient is converged                                               NO
 OPT| **************************************************************************
 OPT| Estimated peak process memory after this step [MiB]                   1993

 --------------------------
 OPTIMIZATION STEP:     78
 --------------------------

 Number of electrons:                                                        416
 Number of occupied orbitals:                                                208
 Number of molecular orbitals:                                               208

 Number of orbital functions:                                                318
 Number of independent orbital functions:                                    318

 Extrapolation method: ASPC


 SCF WAVEFUNCTION OPTIMIZATION

  ----------------------------------- OT ---------------------------------------
  Minimizer      : DIIS                : direct inversion
                                         in the iterative subspace
                                         using   7 DIIS vectors
                                         safer DIIS on
  Preconditioner : FULL_SINGLE_INVERSE : inversion of 
                                         H + eS - 2*(Sc)(c^T*H*c+const)(Sc)^T
  Precond_solver : DEFAULT
  stepsize       :    0.08000000                  energy_gap     :    0.08000000
  eps_taylor     :   0.10000E-15                  max_taylor     :             4
  ----------------------------------- OT ---------------------------------------

  Step     Update method      Time    Convergence         Total energy    Change
  ------------------------------------------------------------------------------
     1 OT DIIS     0.80E-01    6.5     0.00181589      -920.7377480329 -9.21E+02
     2 OT DIIS     0.80E-01    7.8     0.00116638      -920.7519181381 -1.42E-02
     3 OT DIIS     0.80E-01    7.9     0.00033523      -920.7618444278 -9.93E-03
     4 OT DIIS     0.80E-01    7.9     0.00010865      -920.7624707533 -6.26E-04
     5 OT DIIS     0.80E-01    7.9     0.00004407      -920.7625290707 -5.83E-05
     6 OT DIIS     0.80E-01    7.9     0.00002196      -920.7625397602 -1.07E-05
     7 OT DIIS     0.80E-01    7.8     0.00000847      -920.7625428099 -3.05E-06

  *** SCF run converged in     7 steps ***


  Electronic density on regular grids:       -415.9999927945        0.0000072055
  Core density on regular grids:              415.9999999753       -0.0000000247
  Total charge density on r-space grids:        0.0000071809
  Total charge density g-space grids:           0.0000071809

  Overlap energy of the core charge distribution:               0.00000007974132
  Self energy of the core charge distribution:              -2388.37244906618980
  Core Hamiltonian energy:                                    696.97103760167738
  Hartree energy:                                             990.04334071706398
  Exchange-correlation energy:                               -219.40447214218179

  Total energy:                                              -920.76254280988894

 ENERGY| Total FORCE_EVAL ( QS ) energy [hartree]           -920.762543284694061

 OPT| **************************************************************************
 OPT| Step number                                                             78
 OPT| Optimization method                                                  LBFGS
 OPT| Total energy [hartree]                                     -920.7625432847
 OPT| Effective energy change [hartree]                            -0.0002677159
 OPT| Decrease in energy                                                     YES
 OPT| Used time [s]                                                       64.484
 OPT|
 OPT| Maximum step size                                             0.0594522451
 OPT| Convergence limit for maximum step size                       0.0030000000
 OPT| Maximum step size is converged                                          NO
 OPT|
 OPT| RMS step size                                                 0.0063996954
 OPT| Convergence limit for RMS step size                           0.0015000000
 OPT| RMS step size is converged                                              NO
 OPT|
 OPT| Maximum gradient                                              0.0115226909
 OPT| Convergence limit for maximum gradient                        0.0010000000
 OPT| Maximum gradient is converged                                           NO
 OPT|
 OPT| RMS gradient                                                  0.0014936965
 OPT| Convergence limit for RMS gradient                            0.0003000000
 OPT| RMS gradient is converged                                               NO
 OPT| **************************************************************************
 OPT| Estimated peak process memory after this step [MiB]                   1993

 --------------------------
 OPTIMIZATION STEP:     79
 --------------------------

 Number of electrons:                                                        416
 Number of occupied orbitals:                                                208
 Number of molecular orbitals:                                               208

 Number of orbital functions:                                                318
 Number of independent orbital functions:                                    318

 Extrapolation method: ASPC


 SCF WAVEFUNCTION OPTIMIZATION

  ----------------------------------- OT ---------------------------------------
  Minimizer      : DIIS                : direct inversion
                                         in the iterative subspace
                                         using   7 DIIS vectors
                                         safer DIIS on
  Preconditioner : FULL_SINGLE_INVERSE : inversion of 
                                         H + eS - 2*(Sc)(c^T*H*c+const)(Sc)^T
  Precond_solver : DEFAULT
  stepsize       :    0.08000000                  energy_gap     :    0.08000000
  eps_taylor     :   0.10000E-15                  max_taylor     :             4
  ----------------------------------- OT ---------------------------------------

  Step     Update method      Time    Convergence         Total energy    Change
  ------------------------------------------------------------------------------
     1 OT DIIS     0.80E-01    6.5     0.00137025      -920.7494550966 -9.21E+02
     2 OT DIIS     0.80E-01    7.8     0.00085365      -920.7572391093 -7.78E-03
     3 OT DIIS     0.80E-01    7.9     0.00039494      -920.7617866365 -4.55E-03
     4 OT DIIS     0.80E-01    7.9     0.00008587      -920.7628009499 -1.01E-03
     5 OT DIIS     0.80E-01    7.8     0.00003384      -920.7628448972 -4.39E-05
     6 OT DIIS     0.80E-01    7.8     0.00001775      -920.7628505446 -5.65E-06
     7 OT DIIS     0.80E-01    7.9     0.00000693      -920.7628525645 -2.02E-06

  *** SCF run converged in     7 steps ***


  Electronic density on regular grids:       -415.9999927688        0.0000072312
  Core density on regular grids:              415.9999999754       -0.0000000246
  Total charge density on r-space grids:        0.0000072065
  Total charge density g-space grids:           0.0000072065

  Overlap energy of the core charge distribution:               0.00000007762802
  Self energy of the core charge distribution:              -2388.37244906618980
  Core Hamiltonian energy:                                    696.98009142554235
  Hartree energy:                                             990.03487866742228
  Exchange-correlation energy:                               -219.40537366888898

  Total energy:                                              -920.76285256448591

 ENERGY| Total FORCE_EVAL ( QS ) energy [hartree]           -920.762852888931093

 OPT| **************************************************************************
 OPT| Step number                                                             79
 OPT| Optimization method                                                  LBFGS
 OPT| Total energy [hartree]                                     -920.7628528889
 OPT| Effective energy change [hartree]                            -0.0003096042
 OPT| Decrease in energy                                                     YES
 OPT| Used time [s]                                                       64.449
 OPT|
 OPT| Maximum step size                                             0.0213166084
 OPT| Convergence limit for maximum step size                       0.0030000000
 OPT| Maximum step size is converged                                          NO
 OPT|
 OPT| RMS step size                                                 0.0027835688
 OPT| Convergence limit for RMS step size                           0.0015000000
 OPT| RMS step size is converged                                              NO
 OPT|
 OPT| Maximum gradient                                              0.0045419298
 OPT| Convergence limit for maximum gradient                        0.0010000000
 OPT| Maximum gradient is converged                                           NO
 OPT|
 OPT| RMS gradient                                                  0.0008807482
 OPT| Convergence limit for RMS gradient                            0.0003000000
 OPT| RMS gradient is converged                                               NO
 OPT| **************************************************************************
 OPT| Estimated peak process memory after this step [MiB]                   1993

 --------------------------
 OPTIMIZATION STEP:     80
 --------------------------

 Number of electrons:                                                        416
 Number of occupied orbitals:                                                208
 Number of molecular orbitals:                                               208

 Number of orbital functions:                                                318
 Number of independent orbital functions:                                    318

 Extrapolation method: ASPC


 SCF WAVEFUNCTION OPTIMIZATION

  ----------------------------------- OT ---------------------------------------
  Minimizer      : DIIS                : direct inversion
                                         in the iterative subspace
                                         using   7 DIIS vectors
                                         safer DIIS on
  Preconditioner : FULL_SINGLE_INVERSE : inversion of 
                                         H + eS - 2*(Sc)(c^T*H*c+const)(Sc)^T
  Precond_solver : DEFAULT
  stepsize       :    0.08000000                  energy_gap     :    0.08000000
  eps_taylor     :   0.10000E-15                  max_taylor     :             4
  ----------------------------------- OT ---------------------------------------

  Step     Update method      Time    Convergence         Total energy    Change
  ------------------------------------------------------------------------------
     1 OT DIIS     0.80E-01    6.5     0.00074304      -920.7589714110 -9.21E+02
     2 OT DIIS     0.80E-01    7.8     0.00046917      -920.7613105729 -2.34E-03
     3 OT DIIS     0.80E-01    7.8     0.00016757      -920.7628290813 -1.52E-03
     4 OT DIIS     0.80E-01    7.8     0.00004949      -920.7630072894 -1.78E-04
     5 OT DIIS     0.80E-01    7.8     0.00001810      -920.7630205508 -1.33E-05
     6 OT DIIS     0.80E-01    7.8     0.00000907      -920.7630222317 -1.68E-06

  *** SCF run converged in     6 steps ***


  Electronic density on regular grids:       -415.9999927786        0.0000072214
  Core density on regular grids:              415.9999999754       -0.0000000246
  Total charge density on r-space grids:        0.0000071968
  Total charge density g-space grids:           0.0000071968

  Overlap energy of the core charge distribution:               0.00000007820427
  Self energy of the core charge distribution:              -2388.37244906618980
  Core Hamiltonian energy:                                    696.99055467796302
  Hartree energy:                                             990.02701923279847
  Exchange-correlation energy:                               -219.40814715442960

  Total energy:                                              -920.76302223165362

 ENERGY| Total FORCE_EVAL ( QS ) energy [hartree]           -920.763022732939021

 OPT| **************************************************************************
 OPT| Step number                                                             80
 OPT| Optimization method                                                  LBFGS
 OPT| Total energy [hartree]                                     -920.7630227329
 OPT| Effective energy change [hartree]                            -0.0001698440
 OPT| Decrease in energy                                                     YES
 OPT| Used time [s]                                                       56.550
 OPT|
 OPT| Maximum step size                                             0.0219791486
 OPT| Convergence limit for maximum step size                       0.0030000000
 OPT| Maximum step size is converged                                          NO
 OPT|
 OPT| RMS step size                                                 0.0026351807
 OPT| Convergence limit for RMS step size                           0.0015000000
 OPT| RMS step size is converged                                              NO
 OPT|
 OPT| Maximum gradient                                              0.0028658413
 OPT| Convergence limit for maximum gradient                        0.0010000000
 OPT| Maximum gradient is converged                                           NO
 OPT|
 OPT| RMS gradient                                                  0.0004830041
 OPT| Convergence limit for RMS gradient                            0.0003000000
 OPT| RMS gradient is converged                                               NO
 OPT| **************************************************************************
 OPT| Estimated peak process memory after this step [MiB]                   1993

 --------------------------
 OPTIMIZATION STEP:     81
 --------------------------

 Number of electrons:                                                        416
 Number of occupied orbitals:                                                208
 Number of molecular orbitals:                                               208

 Number of orbital functions:                                                318
 Number of independent orbital functions:                                    318

 Extrapolation method: ASPC


 SCF WAVEFUNCTION OPTIMIZATION

  ----------------------------------- OT ---------------------------------------
  Minimizer      : DIIS                : direct inversion
                                         in the iterative subspace
                                         using   7 DIIS vectors
                                         safer DIIS on
  Preconditioner : FULL_SINGLE_INVERSE : inversion of 
                                         H + eS - 2*(Sc)(c^T*H*c+const)(Sc)^T
  Precond_solver : DEFAULT
  stepsize       :    0.08000000                  energy_gap     :    0.08000000
  eps_taylor     :   0.10000E-15                  max_taylor     :             4
  ----------------------------------- OT ---------------------------------------

  Step     Update method      Time    Convergence         Total energy    Change
  ------------------------------------------------------------------------------
     1 OT DIIS     0.80E-01    6.5     0.00036921      -920.7622159523 -9.21E+02
     2 OT DIIS     0.80E-01    7.8     0.00022734      -920.7627864826 -5.71E-04
     3 OT DIIS     0.80E-01    7.9     0.00008451      -920.7631318004 -3.45E-04
     4 OT DIIS     0.80E-01    7.9     0.00002683      -920.7631763305 -4.45E-05
     5 OT DIIS     0.80E-01    7.8     0.00000957      -920.7631803995 -4.07E-06

  *** SCF run converged in     5 steps ***


  Electronic density on regular grids:       -415.9999927632        0.0000072368
  Core density on regular grids:              415.9999999754       -0.0000000246
  Total charge density on r-space grids:        0.0000072122
  Total charge density g-space grids:           0.0000072122

  Overlap energy of the core charge distribution:               0.00000007908862
  Self energy of the core charge distribution:              -2388.37244906618980
  Core Hamiltonian energy:                                    697.00460928935911
  Hartree energy:                                             990.01679122372673
  Exchange-correlation energy:                               -219.41213192550481

  Total energy:                                              -920.76318039952014

 ENERGY| Total FORCE_EVAL ( QS ) energy [hartree]           -920.763180852417463

 OPT| **************************************************************************
 OPT| Step number                                                             81
 OPT| Optimization method                                                  LBFGS
 OPT| Total energy [hartree]                                     -920.7631808524
 OPT| Effective energy change [hartree]                            -0.0001581195
 OPT| Decrease in energy                                                     YES
 OPT| Used time [s]                                                       48.767
 OPT|
 OPT| Maximum step size                                             0.0108814079
 OPT| Convergence limit for maximum step size                       0.0030000000
 OPT| Maximum step size is converged                                          NO
 OPT|
 OPT| RMS step size                                                 0.0019295514
 OPT| Convergence limit for RMS step size                           0.0015000000
 OPT| RMS step size is converged                                              NO
 OPT|
 OPT| Maximum gradient                                              0.0039433677
 OPT| Convergence limit for maximum gradient                        0.0010000000
 OPT| Maximum gradient is converged                                           NO
 OPT|
 OPT| RMS gradient                                                  0.0005092250
 OPT| Convergence limit for RMS gradient                            0.0003000000
 OPT| RMS gradient is converged                                               NO
 OPT| **************************************************************************
 OPT| Estimated peak process memory after this step [MiB]                   1993

 --------------------------
 OPTIMIZATION STEP:     82
 --------------------------

 Number of electrons:                                                        416
 Number of occupied orbitals:                                                208
 Number of molecular orbitals:                                               208

 Number of orbital functions:                                                318
 Number of independent orbital functions:                                    318

 Extrapolation method: ASPC


 SCF WAVEFUNCTION OPTIMIZATION

  ----------------------------------- OT ---------------------------------------
  Minimizer      : DIIS                : direct inversion
                                         in the iterative subspace
                                         using   7 DIIS vectors
                                         safer DIIS on
  Preconditioner : FULL_SINGLE_INVERSE : inversion of 
                                         H + eS - 2*(Sc)(c^T*H*c+const)(Sc)^T
  Precond_solver : DEFAULT
  stepsize       :    0.08000000                  energy_gap     :    0.08000000
  eps_taylor     :   0.10000E-15                  max_taylor     :             4
  ----------------------------------- OT ---------------------------------------

  Step     Update method      Time    Convergence         Total energy    Change
  ------------------------------------------------------------------------------
     1 OT DIIS     0.80E-01    6.5     0.00030319      -920.7628428632 -9.21E+02
     2 OT DIIS     0.80E-01    7.8     0.00019377      -920.7632376258 -3.95E-04
     3 OT DIIS     0.80E-01    7.8     0.00005088      -920.7635136586 -2.76E-04
     4 OT DIIS     0.80E-01    7.8     0.00001796      -920.7635286368 -1.50E-05
     5 OT DIIS     0.80E-01    7.8     0.00000703      -920.7635301796 -1.54E-06

  *** SCF run converged in     5 steps ***


  Electronic density on regular grids:       -415.9999927313        0.0000072687
  Core density on regular grids:              415.9999999755       -0.0000000245
  Total charge density on r-space grids:        0.0000072442
  Total charge density g-space grids:           0.0000072442

  Overlap energy of the core charge distribution:               0.00000008037361
  Self energy of the core charge distribution:              -2388.37244906618980
  Core Hamiltonian energy:                                    697.03554163079957
  Hartree energy:                                             989.99340059467852
  Exchange-correlation energy:                               -219.42002341924513

  Total energy:                                              -920.76353017958343

 ENERGY| Total FORCE_EVAL ( QS ) energy [hartree]           -920.763530443720811

 OPT| **************************************************************************
 OPT| Step number                                                             82
 OPT| Optimization method                                                  LBFGS
 OPT| Total energy [hartree]                                     -920.7635304437
 OPT| Effective energy change [hartree]                            -0.0003495913
 OPT| Decrease in energy                                                     YES
 OPT| Used time [s]                                                       48.730
 OPT|
 OPT| Maximum step size                                             0.0492981501
 OPT| Convergence limit for maximum step size                       0.0030000000
 OPT| Maximum step size is converged                                          NO
 OPT|
 OPT| RMS step size                                                 0.0076548755
 OPT| Convergence limit for RMS step size                           0.0015000000
 OPT| RMS step size is converged                                              NO
 OPT|
 OPT| Maximum gradient                                              0.0055001471
 OPT| Convergence limit for maximum gradient                        0.0010000000
 OPT| Maximum gradient is converged                                           NO
 OPT|
 OPT| RMS gradient                                                  0.0010247013
 OPT| Convergence limit for RMS gradient                            0.0003000000
 OPT| RMS gradient is converged                                               NO
 OPT| **************************************************************************
 OPT| Estimated peak process memory after this step [MiB]                   1993

 --------------------------
 OPTIMIZATION STEP:     83
 --------------------------

 Number of electrons:                                                        416
 Number of occupied orbitals:                                                208
 Number of molecular orbitals:                                               208

 Number of orbital functions:                                                318
 Number of independent orbital functions:                                    318

 Extrapolation method: ASPC


 SCF WAVEFUNCTION OPTIMIZATION

  ----------------------------------- OT ---------------------------------------
  Minimizer      : DIIS                : direct inversion
                                         in the iterative subspace
                                         using   7 DIIS vectors
                                         safer DIIS on
  Preconditioner : FULL_SINGLE_INVERSE : inversion of 
                                         H + eS - 2*(Sc)(c^T*H*c+const)(Sc)^T
  Precond_solver : DEFAULT
  stepsize       :    0.08000000                  energy_gap     :    0.08000000
  eps_taylor     :   0.10000E-15                  max_taylor     :             4
  ----------------------------------- OT ---------------------------------------

  Step     Update method      Time    Convergence         Total energy    Change
  ------------------------------------------------------------------------------
     1 OT DIIS     0.80E-01    6.5     0.00042070      -920.7625420617 -9.21E+02
     2 OT DIIS     0.80E-01    7.9     0.00026533      -920.7632891853 -7.47E-04
     3 OT DIIS     0.80E-01    7.8     0.00010418      -920.7637643244 -4.75E-04
     4 OT DIIS     0.80E-01    7.8     0.00002909      -920.7638300466 -6.57E-05
     5 OT DIIS     0.80E-01    7.8     0.00001154      -920.7638346939 -4.65E-06
     6 OT DIIS     0.80E-01    7.8     0.00000564      -920.7638353757 -6.82E-07

  *** SCF run converged in     6 steps ***


  Electronic density on regular grids:       -415.9999926980        0.0000073020
  Core density on regular grids:              415.9999999755       -0.0000000245
  Total charge density on r-space grids:        0.0000072775
  Total charge density g-space grids:           0.0000072775

  Overlap energy of the core charge distribution:               0.00000008130715
  Self energy of the core charge distribution:              -2388.37244906618980
  Core Hamiltonian energy:                                    697.03765548411229
  Hartree energy:                                             989.99242225484534
  Exchange-correlation energy:                               -219.42146412973077

  Total energy:                                              -920.76383537565596

 ENERGY| Total FORCE_EVAL ( QS ) energy [hartree]           -920.763835573212418

 OPT| **************************************************************************
 OPT| Step number                                                             83
 OPT| Optimization method                                                  LBFGS
 OPT| Total energy [hartree]                                     -920.7638355732
 OPT| Effective energy change [hartree]                            -0.0003051295
 OPT| Decrease in energy                                                     YES
 OPT| Used time [s]                                                       56.581
 OPT|
 OPT| Maximum step size                                             0.0251174802
 OPT| Convergence limit for maximum step size                       0.0030000000
 OPT| Maximum step size is converged                                          NO
 OPT|
 OPT| RMS step size                                                 0.0032397135
 OPT| Convergence limit for RMS step size                           0.0015000000
 OPT| RMS step size is converged                                              NO
 OPT|
 OPT| Maximum gradient                                              0.0053799095
 OPT| Convergence limit for maximum gradient                        0.0010000000
 OPT| Maximum gradient is converged                                           NO
 OPT|
 OPT| RMS gradient                                                  0.0010431013
 OPT| Convergence limit for RMS gradient                            0.0003000000
 OPT| RMS gradient is converged                                               NO
 OPT| **************************************************************************
 OPT| Estimated peak process memory after this step [MiB]                   1993

 --------------------------
 OPTIMIZATION STEP:     84
 --------------------------

 Number of electrons:                                                        416
 Number of occupied orbitals:                                                208
 Number of molecular orbitals:                                               208

 Number of orbital functions:                                                318
 Number of independent orbital functions:                                    318

 Extrapolation method: ASPC


 SCF WAVEFUNCTION OPTIMIZATION

  ----------------------------------- OT ---------------------------------------
  Minimizer      : DIIS                : direct inversion
                                         in the iterative subspace
                                         using   7 DIIS vectors
                                         safer DIIS on
  Preconditioner : FULL_SINGLE_INVERSE : inversion of 
                                         H + eS - 2*(Sc)(c^T*H*c+const)(Sc)^T
  Precond_solver : DEFAULT
  stepsize       :    0.08000000                  energy_gap     :    0.08000000
  eps_taylor     :   0.10000E-15                  max_taylor     :             4
  ----------------------------------- OT ---------------------------------------

  Step     Update method      Time    Convergence         Total energy    Change
  ------------------------------------------------------------------------------
     1 OT DIIS     0.80E-01    6.5     0.00061249      -920.7615753651 -9.21E+02
     2 OT DIIS     0.80E-01    7.8     0.00038945      -920.7631778371 -1.60E-03
     3 OT DIIS     0.80E-01    7.8     0.00011950      -920.7642618270 -1.08E-03
     4 OT DIIS     0.80E-01    7.8     0.00003828      -920.7643443563 -8.25E-05
     5 OT DIIS     0.80E-01    7.8     0.00001517      -920.7643516345 -7.28E-06
     6 OT DIIS     0.80E-01    7.9     0.00000686      -920.7643529544 -1.32E-06

  *** SCF run converged in     6 steps ***


  Electronic density on regular grids:       -415.9999928046        0.0000071954
  Core density on regular grids:              415.9999999755       -0.0000000245
  Total charge density on r-space grids:        0.0000071708
  Total charge density g-space grids:           0.0000071708

  Overlap energy of the core charge distribution:               0.00000008006917
  Self energy of the core charge distribution:              -2388.37244906618980
  Core Hamiltonian energy:                                    697.02252121498759
  Hartree energy:                                             990.00287998851866
  Exchange-correlation energy:                               -219.41730517182538

  Total energy:                                              -920.76435295443980

 ENERGY| Total FORCE_EVAL ( QS ) energy [hartree]           -920.764353240230093

 OPT| **************************************************************************
 OPT| Step number                                                             84
 OPT| Optimization method                                                  LBFGS
 OPT| Total energy [hartree]                                     -920.7643532402
 OPT| Effective energy change [hartree]                            -0.0005176670
 OPT| Decrease in energy                                                     YES
 OPT| Used time [s]                                                       56.622
 OPT|
 OPT| Maximum step size                                             0.1008922790
 OPT| Convergence limit for maximum step size                       0.0030000000
 OPT| Maximum step size is converged                                          NO
 OPT|
 OPT| RMS step size                                                 0.0131269635
 OPT| Convergence limit for RMS step size                           0.0015000000
 OPT| RMS step size is converged                                              NO
 OPT|
 OPT| Maximum gradient                                              0.0068912754
 OPT| Convergence limit for maximum gradient                        0.0010000000
 OPT| Maximum gradient is converged                                           NO
 OPT|
 OPT| RMS gradient                                                  0.0012492798
 OPT| Convergence limit for RMS gradient                            0.0003000000
 OPT| RMS gradient is converged                                               NO
 OPT| **************************************************************************
 OPT| Estimated peak process memory after this step [MiB]                   1993

 --------------------------
 OPTIMIZATION STEP:     85
 --------------------------

 Number of electrons:                                                        416
 Number of occupied orbitals:                                                208
 Number of molecular orbitals:                                               208

 Number of orbital functions:                                                318
 Number of independent orbital functions:                                    318

 Extrapolation method: ASPC


 SCF WAVEFUNCTION OPTIMIZATION

  ----------------------------------- OT ---------------------------------------
  Minimizer      : DIIS                : direct inversion
                                         in the iterative subspace
                                         using   7 DIIS vectors
                                         safer DIIS on
  Preconditioner : FULL_SINGLE_INVERSE : inversion of 
                                         H + eS - 2*(Sc)(c^T*H*c+const)(Sc)^T
  Precond_solver : DEFAULT
  stepsize       :    0.08000000                  energy_gap     :    0.08000000
  eps_taylor     :   0.10000E-15                  max_taylor     :             4
  ----------------------------------- OT ---------------------------------------

  Step     Update method      Time    Convergence         Total energy    Change
  ------------------------------------------------------------------------------
     1 OT DIIS     0.80E-01    6.5     0.00097718      -920.7578207896 -9.21E+02
     2 OT DIIS     0.80E-01    7.8     0.00060703      -920.7618046671 -3.98E-03
     3 OT DIIS     0.80E-01    7.9     0.00025611      -920.7641909333 -2.39E-03
     4 OT DIIS     0.80E-01    7.8     0.00006816      -920.7646035149 -4.13E-04
     5 OT DIIS     0.80E-01    7.8     0.00002712      -920.7646301059 -2.66E-05
     6 OT DIIS     0.80E-01    7.9     0.00001321      -920.7646338314 -3.73E-06
     7 OT DIIS     0.80E-01    7.8     0.00000526      -920.7646349255 -1.09E-06

  *** SCF run converged in     7 steps ***


  Electronic density on regular grids:       -415.9999927957        0.0000072043
  Core density on regular grids:              415.9999999755       -0.0000000245
  Total charge density on r-space grids:        0.0000071797
  Total charge density g-space grids:           0.0000071797

  Overlap energy of the core charge distribution:               0.00000008087782
  Self energy of the core charge distribution:              -2388.37244906618980
  Core Hamiltonian energy:                                    697.01111215960793
  Hartree energy:                                             990.01252291602668
  Exchange-correlation energy:                               -219.41582101583555

  Total energy:                                              -920.76463492551306

 ENERGY| Total FORCE_EVAL ( QS ) energy [hartree]           -920.764635108505900

 OPT| **************************************************************************
 OPT| Step number                                                             85
 OPT| Optimization method                                                  LBFGS
 OPT| Total energy [hartree]                                     -920.7646351085
 OPT| Effective energy change [hartree]                            -0.0002818683
 OPT| Decrease in energy                                                     YES
 OPT| Used time [s]                                                       64.488
 OPT|
 OPT| Maximum step size                                             0.0258847758
 OPT| Convergence limit for maximum step size                       0.0030000000
 OPT| Maximum step size is converged                                          NO
 OPT|
 OPT| RMS step size                                                 0.0036055441
 OPT| Convergence limit for RMS step size                           0.0015000000
 OPT| RMS step size is converged                                              NO
 OPT|
 OPT| Maximum gradient                                              0.0174331928
 OPT| Convergence limit for maximum gradient                        0.0010000000
 OPT| Maximum gradient is converged                                           NO
 OPT|
 OPT| RMS gradient                                                  0.0016528295
 OPT| Convergence limit for RMS gradient                            0.0003000000
 OPT| RMS gradient is converged                                               NO
 OPT| **************************************************************************
 OPT| Estimated peak process memory after this step [MiB]                   1993

 --------------------------
 OPTIMIZATION STEP:     86
 --------------------------

 Number of electrons:                                                        416
 Number of occupied orbitals:                                                208
 Number of molecular orbitals:                                               208

 Number of orbital functions:                                                318
 Number of independent orbital functions:                                    318

 Extrapolation method: ASPC


 SCF WAVEFUNCTION OPTIMIZATION

  ----------------------------------- OT ---------------------------------------
  Minimizer      : DIIS                : direct inversion
                                         in the iterative subspace
                                         using   7 DIIS vectors
                                         safer DIIS on
  Preconditioner : FULL_SINGLE_INVERSE : inversion of 
                                         H + eS - 2*(Sc)(c^T*H*c+const)(Sc)^T
  Precond_solver : DEFAULT
  stepsize       :    0.08000000                  energy_gap     :    0.08000000
  eps_taylor     :   0.10000E-15                  max_taylor     :             4
  ----------------------------------- OT ---------------------------------------

  Step     Update method      Time    Convergence         Total energy    Change
  ------------------------------------------------------------------------------
     1 OT DIIS     0.80E-01    6.5     0.00079449      -920.7607108585 -9.21E+02
     2 OT DIIS     0.80E-01    7.8     0.00048163      -920.7632957463 -2.58E-03
     3 OT DIIS     0.80E-01    7.8     0.00022518      -920.7646940485 -1.40E-03
     4 OT DIIS     0.80E-01    7.9     0.00006561      -920.7650094057 -3.15E-04
     5 OT DIIS     0.80E-01    7.9     0.00002473      -920.7650344189 -2.50E-05
     6 OT DIIS     0.80E-01    7.8     0.00001130      -920.7650375851 -3.17E-06
     7 OT DIIS     0.80E-01    7.9     0.00000457      -920.7650383573 -7.72E-07

  *** SCF run converged in     7 steps ***


  Electronic density on regular grids:       -415.9999927891        0.0000072109
  Core density on regular grids:              415.9999999755       -0.0000000245
  Total charge density on r-space grids:        0.0000071864
  Total charge density g-space grids:           0.0000071864

  Overlap energy of the core charge distribution:               0.00000007899248
  Self energy of the core charge distribution:              -2388.37244906618980
  Core Hamiltonian energy:                                    697.00511812718196
  Hartree energy:                                             990.01547787090249
  Exchange-correlation energy:                               -219.41318536823175

  Total energy:                                              -920.76503835734479

 ENERGY| Total FORCE_EVAL ( QS ) energy [hartree]           -920.765038487589436

 OPT| **************************************************************************
 OPT| Step number                                                             86
 OPT| Optimization method                                                  LBFGS
 OPT| Total energy [hartree]                                     -920.7650384876
 OPT| Effective energy change [hartree]                            -0.0004033791
 OPT| Decrease in energy                                                     YES
 OPT| Used time [s]                                                       64.500
 OPT|
 OPT| Maximum step size                                             0.0179533596
 OPT| Convergence limit for maximum step size                       0.0030000000
 OPT| Maximum step size is converged                                          NO
 OPT|
 OPT| RMS step size                                                 0.0015061467
 OPT| Convergence limit for RMS step size                           0.0015000000
 OPT| RMS step size is converged                                              NO
 OPT|
 OPT| Maximum gradient                                              0.0077188531
 OPT| Convergence limit for maximum gradient                        0.0010000000
 OPT| Maximum gradient is converged                                           NO
 OPT|
 OPT| RMS gradient                                                  0.0007686434
 OPT| Convergence limit for RMS gradient                            0.0003000000
 OPT| RMS gradient is converged                                               NO
 OPT| **************************************************************************
 OPT| Estimated peak process memory after this step [MiB]                   1993

 --------------------------
 OPTIMIZATION STEP:     87
 --------------------------

 Number of electrons:                                                        416
 Number of occupied orbitals:                                                208
 Number of molecular orbitals:                                               208

 Number of orbital functions:                                                318
 Number of independent orbital functions:                                    318

 Extrapolation method: ASPC


 SCF WAVEFUNCTION OPTIMIZATION

  ----------------------------------- OT ---------------------------------------
  Minimizer      : DIIS                : direct inversion
                                         in the iterative subspace
                                         using   7 DIIS vectors
                                         safer DIIS on
  Preconditioner : FULL_SINGLE_INVERSE : inversion of 
                                         H + eS - 2*(Sc)(c^T*H*c+const)(Sc)^T
  Precond_solver : DEFAULT
  stepsize       :    0.08000000                  energy_gap     :    0.08000000
  eps_taylor     :   0.10000E-15                  max_taylor     :             4
  ----------------------------------- OT ---------------------------------------

  Step     Update method      Time    Convergence         Total energy    Change
  ------------------------------------------------------------------------------
     1 OT DIIS     0.80E-01    6.5     0.00036195      -920.7646403967 -9.21E+02
     2 OT DIIS     0.80E-01    7.9     0.00019970      -920.7651378026 -4.97E-04
     3 OT DIIS     0.80E-01    7.8     0.00010859      -920.7653334848 -1.96E-04
     4 OT DIIS     0.80E-01    7.9     0.00003496      -920.7654057084 -7.22E-05
     5 OT DIIS     0.80E-01    7.9     0.00001333      -920.7654134471 -7.74E-06
     6 OT DIIS     0.80E-01    7.8     0.00000587      -920.7654144058 -9.59E-07

  *** SCF run converged in     6 steps ***


  Electronic density on regular grids:       -415.9999927410        0.0000072590
  Core density on regular grids:              415.9999999754       -0.0000000246
  Total charge density on r-space grids:        0.0000072344
  Total charge density g-space grids:           0.0000072344

  Overlap energy of the core charge distribution:               0.00000007691988
  Self energy of the core charge distribution:              -2388.37244906618980
  Core Hamiltonian energy:                                    696.98767681797779
  Hartree energy:                                             990.02684188705177
  Exchange-correlation energy:                               -219.40748412153619

  Total energy:                                              -920.76541440577626

 ENERGY| Total FORCE_EVAL ( QS ) energy [hartree]           -920.765414619231706

 OPT| **************************************************************************
 OPT| Step number                                                             87
 OPT| Optimization method                                                  LBFGS
 OPT| Total energy [hartree]                                     -920.7654146192
 OPT| Effective energy change [hartree]                            -0.0003761316
 OPT| Decrease in energy                                                     YES
 OPT| Used time [s]                                                       56.632
 OPT|
 OPT| Maximum step size                                             0.0612021722
 OPT| Convergence limit for maximum step size                       0.0030000000
 OPT| Maximum step size is converged                                          NO
 OPT|
 OPT| RMS step size                                                 0.0072607810
 OPT| Convergence limit for RMS step size                           0.0015000000
 OPT| RMS step size is converged                                              NO
 OPT|
 OPT| Maximum gradient                                              0.0062123417
 OPT| Convergence limit for maximum gradient                        0.0010000000
 OPT| Maximum gradient is converged                                           NO
 OPT|
 OPT| RMS gradient                                                  0.0008414663
 OPT| Convergence limit for RMS gradient                            0.0003000000
 OPT| RMS gradient is converged                                               NO
 OPT| **************************************************************************
 OPT| Estimated peak process memory after this step [MiB]                   1993

 --------------------------
 OPTIMIZATION STEP:     88
 --------------------------

 Number of electrons:                                                        416
 Number of occupied orbitals:                                                208
 Number of molecular orbitals:                                               208

 Number of orbital functions:                                                318
 Number of independent orbital functions:                                    318

 Extrapolation method: ASPC


 SCF WAVEFUNCTION OPTIMIZATION

  ----------------------------------- OT ---------------------------------------
  Minimizer      : DIIS                : direct inversion
                                         in the iterative subspace
                                         using   7 DIIS vectors
                                         safer DIIS on
  Preconditioner : FULL_SINGLE_INVERSE : inversion of 
                                         H + eS - 2*(Sc)(c^T*H*c+const)(Sc)^T
  Precond_solver : DEFAULT
  stepsize       :    0.08000000                  energy_gap     :    0.08000000
  eps_taylor     :   0.10000E-15                  max_taylor     :             4
  ----------------------------------- OT ---------------------------------------

  Step     Update method      Time    Convergence         Total energy    Change
  ------------------------------------------------------------------------------
     1 OT DIIS     0.80E-01    6.5     0.00044536      -920.7643782483 -9.21E+02
     2 OT DIIS     0.80E-01    7.8     0.00027601      -920.7651957196 -8.17E-04
     3 OT DIIS     0.80E-01    7.9     0.00013126      -920.7656598777 -4.64E-04
     4 OT DIIS     0.80E-01    7.9     0.00002893      -920.7657754583 -1.16E-04
     5 OT DIIS     0.80E-01    7.8     0.00001178      -920.7657802790 -4.82E-06
     6 OT DIIS     0.80E-01    7.8     0.00000592      -920.7657809776 -6.99E-07

  *** SCF run converged in     6 steps ***


  Electronic density on regular grids:       -415.9999927279        0.0000072721
  Core density on regular grids:              415.9999999755       -0.0000000245
  Total charge density on r-space grids:        0.0000072476
  Total charge density g-space grids:           0.0000072476

  Overlap energy of the core charge distribution:               0.00000007771863
  Self energy of the core charge distribution:              -2388.37244906618980
  Core Hamiltonian energy:                                    696.98785381553148
  Hartree energy:                                             990.02726158668565
  Exchange-correlation energy:                               -219.40844739136989

  Total energy:                                              -920.76578097762399

 ENERGY| Total FORCE_EVAL ( QS ) energy [hartree]           -920.765781195911813

 OPT| **************************************************************************
 OPT| Step number                                                             88
 OPT| Optimization method                                                  LBFGS
 OPT| Total energy [hartree]                                     -920.7657811959
 OPT| Effective energy change [hartree]                            -0.0003665767
 OPT| Decrease in energy                                                     YES
 OPT| Used time [s]                                                       56.600
 OPT|
 OPT| Maximum step size                                             0.0268704939
 OPT| Convergence limit for maximum step size                       0.0030000000
 OPT| Maximum step size is converged                                          NO
 OPT|
 OPT| RMS step size                                                 0.0034080271
 OPT| Convergence limit for RMS step size                           0.0015000000
 OPT| RMS step size is converged                                              NO
 OPT|
 OPT| Maximum gradient                                              0.0066012232
 OPT| Convergence limit for maximum gradient                        0.0010000000
 OPT| Maximum gradient is converged                                           NO
 OPT|
 OPT| RMS gradient                                                  0.0008262061
 OPT| Convergence limit for RMS gradient                            0.0003000000
 OPT| RMS gradient is converged                                               NO
 OPT| **************************************************************************
 OPT| Estimated peak process memory after this step [MiB]                   1993

 --------------------------
 OPTIMIZATION STEP:     89
 --------------------------

 Number of electrons:                                                        416
 Number of occupied orbitals:                                                208
 Number of molecular orbitals:                                               208

 Number of orbital functions:                                                318
 Number of independent orbital functions:                                    318

 Extrapolation method: ASPC


 SCF WAVEFUNCTION OPTIMIZATION

  ----------------------------------- OT ---------------------------------------
  Minimizer      : DIIS                : direct inversion
                                         in the iterative subspace
                                         using   7 DIIS vectors
                                         safer DIIS on
  Preconditioner : FULL_SINGLE_INVERSE : inversion of 
                                         H + eS - 2*(Sc)(c^T*H*c+const)(Sc)^T
  Precond_solver : DEFAULT
  stepsize       :    0.08000000                  energy_gap     :    0.08000000
  eps_taylor     :   0.10000E-15                  max_taylor     :             4
  ----------------------------------- OT ---------------------------------------

  Step     Update method      Time    Convergence         Total energy    Change
  ------------------------------------------------------------------------------
     1 OT DIIS     0.80E-01    6.5     0.00601399      -920.5681952104 -9.21E+02
     2 OT DIIS     0.80E-01    7.8     0.00718785      -920.6210978858 -5.29E-02
     3 OT DIIS     0.80E-01    7.9     0.00326404      -920.6634191591 -4.23E-02
     4 OT DIIS     0.80E-01    7.9     0.00157573      -920.6772252774 -1.38E-02
     5 OT DIIS     0.80E-01    7.8     0.00068655      -920.6814290877 -4.20E-03
     6 OT DIIS     0.80E-01    7.8     0.00021437      -920.6820983794 -6.69E-04
     7 OT DIIS     0.80E-01    7.8     0.00016130      -920.6822554498 -1.57E-04
     8 OT DIIS     0.80E-01    7.8     0.00006479      -920.6823075632 -5.21E-05
     9 OT DIIS     0.80E-01    7.9     0.00003122      -920.6823148582 -7.29E-06
    10 OT DIIS     0.80E-01    7.9     0.00001784      -920.6823168448 -1.99E-06
    11 OT DIIS     0.80E-01    7.8     0.00000983      -920.6823173133 -4.69E-07

  *** SCF run converged in    11 steps ***


  Electronic density on regular grids:       -415.9999950516        0.0000049484
  Core density on regular grids:              415.9999999750       -0.0000000250
  Total charge density on r-space grids:        0.0000049234
  Total charge density g-space grids:           0.0000049234

  Overlap energy of the core charge distribution:               0.00000012050754
  Self energy of the core charge distribution:              -2388.37244906618980
  Core Hamiltonian energy:                                    696.70831096051506
  Hartree energy:                                             990.28703581355967
  Exchange-correlation energy:                               -219.30521514167927

  Total energy:                                              -920.68231731328672

 ENERGY| Total FORCE_EVAL ( QS ) energy [hartree]           -920.682317479390804

 Number of electrons:                                                        416
 Number of occupied orbitals:                                                208
 Number of molecular orbitals:                                               208

 Number of orbital functions:                                                318
 Number of independent orbital functions:                                    318

 Extrapolation method: ASPC


 SCF WAVEFUNCTION OPTIMIZATION

  ----------------------------------- OT ---------------------------------------
  Minimizer      : DIIS                : direct inversion
                                         in the iterative subspace
                                         using   7 DIIS vectors
                                         safer DIIS on
  Preconditioner : FULL_SINGLE_INVERSE : inversion of 
                                         H + eS - 2*(Sc)(c^T*H*c+const)(Sc)^T
  Precond_solver : DEFAULT
  stepsize       :    0.08000000                  energy_gap     :    0.08000000
  eps_taylor     :   0.10000E-15                  max_taylor     :             4
  ----------------------------------- OT ---------------------------------------

  Step     Update method      Time    Convergence         Total energy    Change
  ------------------------------------------------------------------------------
     1 OT DIIS     0.80E-01    6.5     0.01302781      -920.0365162832 -9.20E+02
     2 OT DIIS     0.80E-01    7.8     0.00654180      -920.5690466150 -5.33E-01
     3 OT DIIS     0.80E-01    7.8     0.00610044      -920.6711660106 -1.02E-01
     4 OT DIIS     0.80E-01    7.8     0.00300711      -920.7248681370 -5.37E-02
     5 OT DIIS     0.80E-01    7.9     0.00123476      -920.7553279179 -3.05E-02
     6 OT DIIS     0.80E-01    7.9     0.00068775      -920.7634148609 -8.09E-03
     7 OT DIIS     0.80E-01    7.9     0.00032377      -920.7655732955 -2.16E-03
     8 OT DIIS     0.80E-01    7.8     0.00013307      -920.7658443760 -2.71E-04
     9 OT DIIS     0.80E-01    7.9     0.00006956      -920.7659421605 -9.78E-05
    10 OT DIIS     0.80E-01    7.8     0.00003947      -920.7659655273 -2.34E-05
    11 OT DIIS     0.80E-01    7.8     0.00002219      -920.7659726233 -7.10E-06
    12 OT DIIS     0.80E-01    7.9     0.00001183      -920.7659751786 -2.56E-06
    13 OT DIIS     0.80E-01    7.9     0.00001069      -920.7659758717 -6.93E-07
    14 OT DIIS     0.80E-01    7.9     0.00000499      -920.7659761260 -2.54E-07

  *** SCF run converged in    14 steps ***


  Electronic density on regular grids:       -415.9999927917        0.0000072083
  Core density on regular grids:              415.9999999755       -0.0000000245
  Total charge density on r-space grids:        0.0000071838
  Total charge density g-space grids:           0.0000071838

  Overlap energy of the core charge distribution:               0.00000007822049
  Self energy of the core charge distribution:              -2388.37244906618980
  Core Hamiltonian energy:                                    696.98229780655402
  Hartree energy:                                             990.03183831485273
  Exchange-correlation energy:                               -219.40766325942514

  Total energy:                                              -920.76597612598755

 ENERGY| Total FORCE_EVAL ( QS ) energy [hartree]           -920.765976242827264

 OPT| **************************************************************************
 OPT| Step number                                                             89
 OPT| Optimization method                                                  LBFGS
 OPT| Total energy [hartree]                                     -920.7659762428
 OPT| Effective energy change [hartree]                            -0.0001950469
 OPT| Decrease in energy                                                     YES
 OPT| Used time [s]                                                      215.251
 OPT|
 OPT| Maximum step size                                             0.0383473379
 OPT| Convergence limit for maximum step size                       0.0030000000
 OPT| Maximum step size is converged                                          NO
 OPT|
 OPT| RMS step size                                                 0.0045455807
 OPT| Convergence limit for RMS step size                           0.0015000000
 OPT| RMS step size is converged                                              NO
 OPT|
 OPT| Maximum gradient                                              0.0080322719
 OPT| Convergence limit for maximum gradient                        0.0010000000
 OPT| Maximum gradient is converged                                           NO
 OPT|
 OPT| RMS gradient                                                  0.0010576334
 OPT| Convergence limit for RMS gradient                            0.0003000000
 OPT| RMS gradient is converged                                               NO
 OPT| **************************************************************************
 OPT| Estimated peak process memory after this step [MiB]                   1993

 --------------------------
 OPTIMIZATION STEP:     90
 --------------------------

 Number of electrons:                                                        416
 Number of occupied orbitals:                                                208
 Number of molecular orbitals:                                               208

 Number of orbital functions:                                                318
 Number of independent orbital functions:                                    318

 Extrapolation method: ASPC


 SCF WAVEFUNCTION OPTIMIZATION

  ----------------------------------- OT ---------------------------------------
  Minimizer      : DIIS                : direct inversion
                                         in the iterative subspace
                                         using   7 DIIS vectors
                                         safer DIIS on
  Preconditioner : FULL_SINGLE_INVERSE : inversion of 
                                         H + eS - 2*(Sc)(c^T*H*c+const)(Sc)^T
  Precond_solver : DEFAULT
  stepsize       :    0.08000000                  energy_gap     :    0.08000000
  eps_taylor     :   0.10000E-15                  max_taylor     :             4
  ----------------------------------- OT ---------------------------------------

  Step     Update method      Time    Convergence         Total energy    Change
  ------------------------------------------------------------------------------
     1 OT DIIS     0.80E-01    6.6     0.01349239      -920.1201403310 -9.20E+02
     2 OT DIIS     0.80E-01    7.8     0.01165948      -920.4971461056 -3.77E-01
     3 OT DIIS     0.80E-01    7.9     0.00612921      -920.6628428000 -1.66E-01
     4 OT DIIS     0.80E-01    7.8     0.00234134      -920.7373731560 -7.45E-02
     5 OT DIIS     0.80E-01    7.9     0.00119542      -920.7597280928 -2.24E-02
     6 OT DIIS     0.80E-01    7.9     0.00051862      -920.7655367265 -5.81E-03
     7 OT DIIS     0.80E-01    7.8     0.00022880      -920.7660853291 -5.49E-04
     8 OT DIIS     0.80E-01    7.8     0.00011139      -920.7662417874 -1.56E-04
     9 OT DIIS     0.80E-01    7.9     0.00004742      -920.7662900973 -4.83E-05
    10 OT DIIS     0.80E-01    7.8     0.00002306      -920.7662982859 -8.19E-06
    11 OT DIIS     0.80E-01    7.8     0.00001245      -920.7662999552 -1.67E-06
    12 OT DIIS     0.80E-01    7.8     0.00000851      -920.7663004340 -4.79E-07

  *** SCF run converged in    12 steps ***


  Electronic density on regular grids:       -415.9999927796        0.0000072204
  Core density on regular grids:              415.9999999755       -0.0000000245
  Total charge density on r-space grids:        0.0000071958
  Total charge density g-space grids:           0.0000071958

  Overlap energy of the core charge distribution:               0.00000007581818
  Self energy of the core charge distribution:              -2388.37244906618980
  Core Hamiltonian energy:                                    696.99094324411044
  Hartree energy:                                             990.02298990330542
  Exchange-correlation energy:                               -219.40778459099906

  Total energy:                                              -920.76630043395483

 ENERGY| Total FORCE_EVAL ( QS ) energy [hartree]           -920.766300634048662

 OPT| **************************************************************************
 OPT| Step number                                                             90
 OPT| Optimization method                                                  LBFGS
 OPT| Total energy [hartree]                                     -920.7663006340
 OPT| Effective energy change [hartree]                            -0.0003243912
 OPT| Decrease in energy                                                     YES
 OPT| Used time [s]                                                      103.759
 OPT|
 OPT| Maximum step size                                             0.0243263551
 OPT| Convergence limit for maximum step size                       0.0030000000
 OPT| Maximum step size is converged                                          NO
 OPT|
 OPT| RMS step size                                                 0.0060160350
 OPT| Convergence limit for RMS step size                           0.0015000000
 OPT| RMS step size is converged                                              NO
 OPT|
 OPT| Maximum gradient                                              0.0070181755
 OPT| Convergence limit for maximum gradient                        0.0010000000
 OPT| Maximum gradient is converged                                           NO
 OPT|
 OPT| RMS gradient                                                  0.0010425452
 OPT| Convergence limit for RMS gradient                            0.0003000000
 OPT| RMS gradient is converged                                               NO
 OPT| **************************************************************************
 OPT| Estimated peak process memory after this step [MiB]                   1993

 --------------------------
 OPTIMIZATION STEP:     91
 --------------------------

 Number of electrons:                                                        416
 Number of occupied orbitals:                                                208
 Number of molecular orbitals:                                               208

 Number of orbital functions:                                                318
 Number of independent orbital functions:                                    318

 Extrapolation method: ASPC


 SCF WAVEFUNCTION OPTIMIZATION

  ----------------------------------- OT ---------------------------------------
  Minimizer      : DIIS                : direct inversion
                                         in the iterative subspace
                                         using   7 DIIS vectors
                                         safer DIIS on
  Preconditioner : FULL_SINGLE_INVERSE : inversion of 
                                         H + eS - 2*(Sc)(c^T*H*c+const)(Sc)^T
  Precond_solver : DEFAULT
  stepsize       :    0.08000000                  energy_gap     :    0.08000000
  eps_taylor     :   0.10000E-15                  max_taylor     :             4
  ----------------------------------- OT ---------------------------------------

  Step     Update method      Time    Convergence         Total energy    Change
  ------------------------------------------------------------------------------
     1 OT DIIS     0.80E-01    6.5     0.01087229      -920.3361840970 -9.20E+02
     2 OT DIIS     0.80E-01    7.8     0.00530941      -920.6765251860 -3.40E-01
     3 OT DIIS     0.80E-01    7.8     0.00608167      -920.7150337873 -3.85E-02
     4 OT DIIS     0.80E-01    7.8     0.00245466      -920.7493305710 -3.43E-02
     5 OT DIIS     0.80E-01    7.9     0.00086902      -920.7623282605 -1.30E-02
     6 OT DIIS     0.80E-01    7.9     0.00054151      -920.7655723642 -3.24E-03
     7 OT DIIS     0.80E-01    7.8     0.00024962      -920.7664214558 -8.49E-04
     8 OT DIIS     0.80E-01    7.9     0.00010707      -920.7665296036 -1.08E-04
     9 OT DIIS     0.80E-01    7.8     0.00005056      -920.7665570314 -2.74E-05
    10 OT DIIS     0.80E-01    7.8     0.00002628      -920.7665652653 -8.23E-06
    11 OT DIIS     0.80E-01    7.9     0.00001448      -920.7665669926 -1.73E-06
    12 OT DIIS     0.80E-01    7.9     0.00000695      -920.7665674272 -4.35E-07

  *** SCF run converged in    12 steps ***


  Electronic density on regular grids:       -415.9999927774        0.0000072226
  Core density on regular grids:              415.9999999755       -0.0000000245
  Total charge density on r-space grids:        0.0000071981
  Total charge density g-space grids:           0.0000071981

  Overlap energy of the core charge distribution:               0.00000007828754
  Self energy of the core charge distribution:              -2388.37244906618980
  Core Hamiltonian energy:                                    696.99198113886155
  Hartree energy:                                             990.02437742161135
  Exchange-correlation energy:                               -219.41047699980800

  Total energy:                                              -920.76656742723742

 ENERGY| Total FORCE_EVAL ( QS ) energy [hartree]           -920.766567525013329

 OPT| **************************************************************************
 OPT| Step number                                                             91
 OPT| Optimization method                                                  LBFGS
 OPT| Total energy [hartree]                                     -920.7665675250
 OPT| Effective energy change [hartree]                            -0.0002668910
 OPT| Decrease in energy                                                     YES
 OPT| Used time [s]                                                      103.781
 OPT|
 OPT| Maximum step size                                             0.0089306601
 OPT| Convergence limit for maximum step size                       0.0030000000
 OPT| Maximum step size is converged                                          NO
 OPT|
 OPT| RMS step size                                                 0.0017204546
 OPT| Convergence limit for RMS step size                           0.0015000000
 OPT| RMS step size is converged                                              NO
 OPT|
 OPT| Maximum gradient                                              0.0035479445
 OPT| Convergence limit for maximum gradient                        0.0010000000
 OPT| Maximum gradient is converged                                           NO
 OPT|
 OPT| RMS gradient                                                  0.0004977311
 OPT| Convergence limit for RMS gradient                            0.0003000000
 OPT| RMS gradient is converged                                               NO
 OPT| **************************************************************************
 OPT| Estimated peak process memory after this step [MiB]                   1993

 --------------------------
 OPTIMIZATION STEP:     92
 --------------------------

 Number of electrons:                                                        416
 Number of occupied orbitals:                                                208
 Number of molecular orbitals:                                               208

 Number of orbital functions:                                                318
 Number of independent orbital functions:                                    318

 Extrapolation method: ASPC


 SCF WAVEFUNCTION OPTIMIZATION

  ----------------------------------- OT ---------------------------------------
  Minimizer      : DIIS                : direct inversion
                                         in the iterative subspace
                                         using   7 DIIS vectors
                                         safer DIIS on
  Preconditioner : FULL_SINGLE_INVERSE : inversion of 
                                         H + eS - 2*(Sc)(c^T*H*c+const)(Sc)^T
  Precond_solver : DEFAULT
  stepsize       :    0.08000000                  energy_gap     :    0.08000000
  eps_taylor     :   0.10000E-15                  max_taylor     :             4
  ----------------------------------- OT ---------------------------------------

  Step     Update method      Time    Convergence         Total energy    Change
  ------------------------------------------------------------------------------
     1 OT DIIS     0.80E-01    6.6     0.00212574      -920.7369301259 -9.21E+02
     2 OT DIIS     0.80E-01    7.8     0.00126811      -920.7549051361 -1.80E-02
     3 OT DIIS     0.80E-01    7.8     0.00067293      -920.7636066878 -8.70E-03
     4 OT DIIS     0.80E-01    7.9     0.00015513      -920.7665150248 -2.91E-03
     5 OT DIIS     0.80E-01    7.8     0.00006248      -920.7666621218 -1.47E-04
     6 OT DIIS     0.80E-01    7.9     0.00003133      -920.7666816505 -1.95E-05
     7 OT DIIS     0.80E-01    7.8     0.00001277      -920.7666875827 -5.93E-06
     8 OT DIIS     0.80E-01    7.9     0.00000498      -920.7666886708 -1.09E-06

  *** SCF run converged in     8 steps ***


  Electronic density on regular grids:       -415.9999927984        0.0000072016
  Core density on regular grids:              415.9999999755       -0.0000000245
  Total charge density on r-space grids:        0.0000071770
  Total charge density g-space grids:           0.0000071770

  Overlap energy of the core charge distribution:               0.00000007907482
  Self energy of the core charge distribution:              -2388.37244906618980
  Core Hamiltonian energy:                                    696.98699676841261
  Hartree energy:                                             990.02879036686375
  Exchange-correlation energy:                               -219.41002681900068

  Total energy:                                              -920.76668867083947

 ENERGY| Total FORCE_EVAL ( QS ) energy [hartree]           -920.766688824364564

 OPT| **************************************************************************
 OPT| Step number                                                             92
 OPT| Optimization method                                                  LBFGS
 OPT| Total energy [hartree]                                     -920.7666888244
 OPT| Effective energy change [hartree]                            -0.0001212994
 OPT| Decrease in energy                                                     YES
 OPT| Used time [s]                                                       72.398
 OPT|
 OPT| Maximum step size                                             0.0113017305
 OPT| Convergence limit for maximum step size                       0.0030000000
 OPT| Maximum step size is converged                                          NO
 OPT|
 OPT| RMS step size                                                 0.0016303525
 OPT| Convergence limit for RMS step size                           0.0015000000
 OPT| RMS step size is converged                                              NO
 OPT|
 OPT| Maximum gradient                                              0.0031522939
 OPT| Convergence limit for maximum gradient                        0.0010000000
 OPT| Maximum gradient is converged                                           NO
 OPT|
 OPT| RMS gradient                                                  0.0005433155
 OPT| Convergence limit for RMS gradient                            0.0003000000
 OPT| RMS gradient is converged                                               NO
 OPT| **************************************************************************
 OPT| Estimated peak process memory after this step [MiB]                   1993

 --------------------------
 OPTIMIZATION STEP:     93
 --------------------------

 Number of electrons:                                                        416
 Number of occupied orbitals:                                                208
 Number of molecular orbitals:                                               208

 Number of orbital functions:                                                318
 Number of independent orbital functions:                                    318

 Extrapolation method: ASPC


 SCF WAVEFUNCTION OPTIMIZATION

  ----------------------------------- OT ---------------------------------------
  Minimizer      : DIIS                : direct inversion
                                         in the iterative subspace
                                         using   7 DIIS vectors
                                         safer DIIS on
  Preconditioner : FULL_SINGLE_INVERSE : inversion of 
                                         H + eS - 2*(Sc)(c^T*H*c+const)(Sc)^T
  Precond_solver : DEFAULT
  stepsize       :    0.08000000                  energy_gap     :    0.08000000
  eps_taylor     :   0.10000E-15                  max_taylor     :             4
  ----------------------------------- OT ---------------------------------------

  Step     Update method      Time    Convergence         Total energy    Change
  ------------------------------------------------------------------------------
     1 OT DIIS     0.80E-01    6.5     0.00039358      -920.7657173396 -9.21E+02
     2 OT DIIS     0.80E-01    7.8     0.00024428      -920.7663640873 -6.47E-04
     3 OT DIIS     0.80E-01    7.8     0.00010138      -920.7667513771 -3.87E-04
     4 OT DIIS     0.80E-01    7.8     0.00002808      -920.7668162628 -6.49E-05
     5 OT DIIS     0.80E-01    7.8     0.00001045      -920.7668206997 -4.44E-06
     6 OT DIIS     0.80E-01    7.9     0.00000521      -920.7668212449 -5.45E-07

  *** SCF run converged in     6 steps ***


  Electronic density on regular grids:       -415.9999927965        0.0000072035
  Core density on regular grids:              415.9999999755       -0.0000000245
  Total charge density on r-space grids:        0.0000071789
  Total charge density g-space grids:           0.0000071789

  Overlap energy of the core charge distribution:               0.00000007934080
  Self energy of the core charge distribution:              -2388.37244906618980
  Core Hamiltonian energy:                                    696.98303983083736
  Hartree energy:                                             990.03186291507484
  Exchange-correlation energy:                               -219.40927500392758

  Total energy:                                              -920.76682124486456

 ENERGY| Total FORCE_EVAL ( QS ) energy [hartree]           -920.766821415776121

 OPT| **************************************************************************
 OPT| Step number                                                             93
 OPT| Optimization method                                                  LBFGS
 OPT| Total energy [hartree]                                     -920.7668214158
 OPT| Effective energy change [hartree]                            -0.0001325914
 OPT| Decrease in energy                                                     YES
 OPT| Used time [s]                                                       56.591
 OPT|
 OPT| Maximum step size                                             0.0144537586
 OPT| Convergence limit for maximum step size                       0.0030000000
 OPT| Maximum step size is converged                                          NO
 OPT|
 OPT| RMS step size                                                 0.0025577495
 OPT| Convergence limit for RMS step size                           0.0015000000
 OPT| RMS step size is converged                                              NO
 OPT|
 OPT| Maximum gradient                                              0.0037347536
 OPT| Convergence limit for maximum gradient                        0.0010000000
 OPT| Maximum gradient is converged                                           NO
 OPT|
 OPT| RMS gradient                                                  0.0005580674
 OPT| Convergence limit for RMS gradient                            0.0003000000
 OPT| RMS gradient is converged                                               NO
 OPT| **************************************************************************
 OPT| Estimated peak process memory after this step [MiB]                   1993

 --------------------------
 OPTIMIZATION STEP:     94
 --------------------------

 Number of electrons:                                                        416
 Number of occupied orbitals:                                                208
 Number of molecular orbitals:                                               208

 Number of orbital functions:                                                318
 Number of independent orbital functions:                                    318

 Extrapolation method: ASPC


 SCF WAVEFUNCTION OPTIMIZATION

  ----------------------------------- OT ---------------------------------------
  Minimizer      : DIIS                : direct inversion
                                         in the iterative subspace
                                         using   7 DIIS vectors
                                         safer DIIS on
  Preconditioner : FULL_SINGLE_INVERSE : inversion of 
                                         H + eS - 2*(Sc)(c^T*H*c+const)(Sc)^T
  Precond_solver : DEFAULT
  stepsize       :    0.08000000                  energy_gap     :    0.08000000
  eps_taylor     :   0.10000E-15                  max_taylor     :             4
  ----------------------------------- OT ---------------------------------------

  Step     Update method      Time    Convergence         Total energy    Change
  ------------------------------------------------------------------------------
     1 OT DIIS     0.80E-01    6.5     0.00020813      -920.7666347270 -9.21E+02
     2 OT DIIS     0.80E-01    7.8     0.00012883      -920.7668150674 -1.80E-04
     3 OT DIIS     0.80E-01    7.8     0.00005474      -920.7669214899 -1.06E-04
     4 OT DIIS     0.80E-01    7.9     0.00001444      -920.7669404345 -1.89E-05
     5 OT DIIS     0.80E-01    7.9     0.00000535      -920.7669415964 -1.16E-06

  *** SCF run converged in     5 steps ***


  Electronic density on regular grids:       -415.9999927698        0.0000072302
  Core density on regular grids:              415.9999999754       -0.0000000246
  Total charge density on r-space grids:        0.0000072056
  Total charge density g-space grids:           0.0000072056

  Overlap energy of the core charge distribution:               0.00000007926528
  Self energy of the core charge distribution:              -2388.37244906618980
  Core Hamiltonian energy:                                    696.96357729885585
  Hartree energy:                                             990.04665950308811
  Exchange-correlation energy:                               -219.40472941144893

  Total energy:                                              -920.76694159642955

 ENERGY| Total FORCE_EVAL ( QS ) energy [hartree]           -920.766941744313726

 OPT| **************************************************************************
 OPT| Step number                                                             94
 OPT| Optimization method                                                  LBFGS
 OPT| Total energy [hartree]                                     -920.7669417443
 OPT| Effective energy change [hartree]                            -0.0001203285
 OPT| Decrease in energy                                                     YES
 OPT| Used time [s]                                                       48.769
 OPT|
 OPT| Maximum step size                                             0.0313542697
 OPT| Convergence limit for maximum step size                       0.0030000000
 OPT| Maximum step size is converged                                          NO
 OPT|
 OPT| RMS step size                                                 0.0048326750
 OPT| Convergence limit for RMS step size                           0.0015000000
 OPT| RMS step size is converged                                              NO
 OPT|
 OPT| Maximum gradient                                              0.0063930115
 OPT| Convergence limit for maximum gradient                        0.0010000000
 OPT| Maximum gradient is converged                                           NO
 OPT|
 OPT| RMS gradient                                                  0.0008959162
 OPT| Convergence limit for RMS gradient                            0.0003000000
 OPT| RMS gradient is converged                                               NO
 OPT| **************************************************************************
 OPT| Estimated peak process memory after this step [MiB]                   1993

 --------------------------
 OPTIMIZATION STEP:     95
 --------------------------

 Number of electrons:                                                        416
 Number of occupied orbitals:                                                208
 Number of molecular orbitals:                                               208

 Number of orbital functions:                                                318
 Number of independent orbital functions:                                    318

 Extrapolation method: ASPC


 SCF WAVEFUNCTION OPTIMIZATION

  ----------------------------------- OT ---------------------------------------
  Minimizer      : DIIS                : direct inversion
                                         in the iterative subspace
                                         using   7 DIIS vectors
                                         safer DIIS on
  Preconditioner : FULL_SINGLE_INVERSE : inversion of 
                                         H + eS - 2*(Sc)(c^T*H*c+const)(Sc)^T
  Precond_solver : DEFAULT
  stepsize       :    0.08000000                  energy_gap     :    0.08000000
  eps_taylor     :   0.10000E-15                  max_taylor     :             4
  ----------------------------------- OT ---------------------------------------

  Step     Update method      Time    Convergence         Total energy    Change
  ------------------------------------------------------------------------------
     1 OT DIIS     0.80E-01    6.5     0.00032717      -920.7664457309 -9.21E+02
     2 OT DIIS     0.80E-01    7.8     0.00019299      -920.7668703455 -4.25E-04
     3 OT DIIS     0.80E-01    7.8     0.00010128      -920.7670725410 -2.02E-04
     4 OT DIIS     0.80E-01    7.8     0.00002689      -920.7671398584 -6.73E-05
     5 OT DIIS     0.80E-01    7.9     0.00001030      -920.7671442519 -4.39E-06
     6 OT DIIS     0.80E-01    7.9     0.00000473      -920.7671447982 -5.46E-07

  *** SCF run converged in     6 steps ***


  Electronic density on regular grids:       -415.9999926657        0.0000073343
  Core density on regular grids:              415.9999999754       -0.0000000246
  Total charge density on r-space grids:        0.0000073097
  Total charge density g-space grids:           0.0000073097

  Overlap energy of the core charge distribution:               0.00000007816952
  Self energy of the core charge distribution:              -2388.37244906618980
  Core Hamiltonian energy:                                    696.96150202212561
  Hartree energy:                                             990.04698639476476
  Exchange-correlation energy:                               -219.40318422710550

  Total energy:                                              -920.76714479823522

 ENERGY| Total FORCE_EVAL ( QS ) energy [hartree]           -920.767144936225691

 OPT| **************************************************************************
 OPT| Step number                                                             95
 OPT| Optimization method                                                  LBFGS
 OPT| Total energy [hartree]                                     -920.7671449362
 OPT| Effective energy change [hartree]                            -0.0002031919
 OPT| Decrease in energy                                                     YES
 OPT| Used time [s]                                                       56.599
 OPT|
 OPT| Maximum step size                                             0.0163350831
 OPT| Convergence limit for maximum step size                       0.0030000000
 OPT| Maximum step size is converged                                          NO
 OPT|
 OPT| RMS step size                                                 0.0021129316
 OPT| Convergence limit for RMS step size                           0.0015000000
 OPT| RMS step size is converged                                              NO
 OPT|
 OPT| Maximum gradient                                              0.0036801203
 OPT| Convergence limit for maximum gradient                        0.0010000000
 OPT| Maximum gradient is converged                                           NO
 OPT|
 OPT| RMS gradient                                                  0.0005209031
 OPT| Convergence limit for RMS gradient                            0.0003000000
 OPT| RMS gradient is converged                                               NO
 OPT| **************************************************************************
 OPT| Estimated peak process memory after this step [MiB]                   1993

 --------------------------
 OPTIMIZATION STEP:     96
 --------------------------

 Number of electrons:                                                        416
 Number of occupied orbitals:                                                208
 Number of molecular orbitals:                                               208

 Number of orbital functions:                                                318
 Number of independent orbital functions:                                    318

 Extrapolation method: ASPC


 SCF WAVEFUNCTION OPTIMIZATION

  ----------------------------------- OT ---------------------------------------
  Minimizer      : DIIS                : direct inversion
                                         in the iterative subspace
                                         using   7 DIIS vectors
                                         safer DIIS on
  Preconditioner : FULL_SINGLE_INVERSE : inversion of 
                                         H + eS - 2*(Sc)(c^T*H*c+const)(Sc)^T
  Precond_solver : DEFAULT
  stepsize       :    0.08000000                  energy_gap     :    0.08000000
  eps_taylor     :   0.10000E-15                  max_taylor     :             4
  ----------------------------------- OT ---------------------------------------

  Step     Update method      Time    Convergence         Total energy    Change
  ------------------------------------------------------------------------------
     1 OT DIIS     0.80E-01    6.5     0.00032342      -920.7666981344 -9.21E+02
     2 OT DIIS     0.80E-01    7.9     0.00019416      -920.7671236619 -4.26E-04
     3 OT DIIS     0.80E-01    7.8     0.00009149      -920.7673464472 -2.23E-04
     4 OT DIIS     0.80E-01    7.9     0.00002562      -920.7673991212 -5.27E-05
     5 OT DIIS     0.80E-01    7.9     0.00000971      -920.7674030144 -3.89E-06

  *** SCF run converged in     5 steps ***


  Electronic density on regular grids:       -415.9999924647        0.0000075353
  Core density on regular grids:              415.9999999754       -0.0000000246
  Total charge density on r-space grids:        0.0000075107
  Total charge density g-space grids:           0.0000075107

  Overlap energy of the core charge distribution:               0.00000007702179
  Self energy of the core charge distribution:              -2388.37244906618980
  Core Hamiltonian energy:                                    696.95250520221612
  Hartree energy:                                             990.05242554726442
  Exchange-correlation energy:                               -219.39988477467685

  Total energy:                                              -920.76740301436416

 ENERGY| Total FORCE_EVAL ( QS ) energy [hartree]           -920.767403525591590

 OPT| **************************************************************************
 OPT| Step number                                                             96
 OPT| Optimization method                                                  LBFGS
 OPT| Total energy [hartree]                                     -920.7674035256
 OPT| Effective energy change [hartree]                            -0.0002585894
 OPT| Decrease in energy                                                     YES
 OPT| Used time [s]                                                       48.791
 OPT|
 OPT| Maximum step size                                             0.0462883343
 OPT| Convergence limit for maximum step size                       0.0030000000
 OPT| Maximum step size is converged                                          NO
 OPT|
 OPT| RMS step size                                                 0.0054288460
 OPT| Convergence limit for RMS step size                           0.0015000000
 OPT| RMS step size is converged                                              NO
 OPT|
 OPT| Maximum gradient                                              0.0043813160
 OPT| Convergence limit for maximum gradient                        0.0010000000
 OPT| Maximum gradient is converged                                           NO
 OPT|
 OPT| RMS gradient                                                  0.0007230223
 OPT| Convergence limit for RMS gradient                            0.0003000000
 OPT| RMS gradient is converged                                               NO
 OPT| **************************************************************************
 OPT| Estimated peak process memory after this step [MiB]                   1993

 --------------------------
 OPTIMIZATION STEP:     97
 --------------------------

 Number of electrons:                                                        416
 Number of occupied orbitals:                                                208
 Number of molecular orbitals:                                               208

 Number of orbital functions:                                                318
 Number of independent orbital functions:                                    318

 Extrapolation method: ASPC


 SCF WAVEFUNCTION OPTIMIZATION

  ----------------------------------- OT ---------------------------------------
  Minimizer      : DIIS                : direct inversion
                                         in the iterative subspace
                                         using   7 DIIS vectors
                                         safer DIIS on
  Preconditioner : FULL_SINGLE_INVERSE : inversion of 
                                         H + eS - 2*(Sc)(c^T*H*c+const)(Sc)^T
  Precond_solver : DEFAULT
  stepsize       :    0.08000000                  energy_gap     :    0.08000000
  eps_taylor     :   0.10000E-15                  max_taylor     :             4
  ----------------------------------- OT ---------------------------------------

  Step     Update method      Time    Convergence         Total energy    Change
  ------------------------------------------------------------------------------
     1 OT DIIS     0.80E-01    6.5     0.00035568      -920.7667070033 -9.21E+02
     2 OT DIIS     0.80E-01    7.9     0.00021378      -920.7672252735 -5.18E-04
     3 OT DIIS     0.80E-01    7.8     0.00009525      -920.7675031629 -2.78E-04
     4 OT DIIS     0.80E-01    7.8     0.00002849      -920.7675571529 -5.40E-05
     5 OT DIIS     0.80E-01    7.9     0.00001074      -920.7675621255 -4.97E-06
     6 OT DIIS     0.80E-01    7.8     0.00000463      -920.7675628167 -6.91E-07

  *** SCF run converged in     6 steps ***


  Electronic density on regular grids:       -415.9999924553        0.0000075447
  Core density on regular grids:              415.9999999753       -0.0000000247
  Total charge density on r-space grids:        0.0000075200
  Total charge density g-space grids:           0.0000075200

  Overlap energy of the core charge distribution:               0.00000007804491
  Self energy of the core charge distribution:              -2388.37244906618980
  Core Hamiltonian energy:                                    696.95558030087568
  Hartree energy:                                             990.05097921320817
  Exchange-correlation energy:                               -219.40167334265672

  Total energy:                                              -920.76756281671760

 ENERGY| Total FORCE_EVAL ( QS ) energy [hartree]           -920.767562952845537

 OPT| **************************************************************************
 OPT| Step number                                                             97
 OPT| Optimization method                                                  LBFGS
 OPT| Total energy [hartree]                                     -920.7675629528
 OPT| Effective energy change [hartree]                            -0.0001594273
 OPT| Decrease in energy                                                     YES
 OPT| Used time [s]                                                       56.615
 OPT|
 OPT| Maximum step size                                             0.0101446977
 OPT| Convergence limit for maximum step size                       0.0030000000
 OPT| Maximum step size is converged                                          NO
 OPT|
 OPT| RMS step size                                                 0.0017024458
 OPT| Convergence limit for RMS step size                           0.0015000000
 OPT| RMS step size is converged                                              NO
 OPT|
 OPT| Maximum gradient                                              0.0040388774
 OPT| Convergence limit for maximum gradient                        0.0010000000
 OPT| Maximum gradient is converged                                           NO
 OPT|
 OPT| RMS gradient                                                  0.0005673801
 OPT| Convergence limit for RMS gradient                            0.0003000000
 OPT| RMS gradient is converged                                               NO
 OPT| **************************************************************************
 OPT| Estimated peak process memory after this step [MiB]                   1993

 --------------------------
 OPTIMIZATION STEP:     98
 --------------------------

 Number of electrons:                                                        416
 Number of occupied orbitals:                                                208
 Number of molecular orbitals:                                               208

 Number of orbital functions:                                                318
 Number of independent orbital functions:                                    318

 Extrapolation method: ASPC


 SCF WAVEFUNCTION OPTIMIZATION

  ----------------------------------- OT ---------------------------------------
  Minimizer      : DIIS                : direct inversion
                                         in the iterative subspace
                                         using   7 DIIS vectors
                                         safer DIIS on
  Preconditioner : FULL_SINGLE_INVERSE : inversion of 
                                         H + eS - 2*(Sc)(c^T*H*c+const)(Sc)^T
  Precond_solver : DEFAULT
  stepsize       :    0.08000000                  energy_gap     :    0.08000000
  eps_taylor     :   0.10000E-15                  max_taylor     :             4
  ----------------------------------- OT ---------------------------------------

  Step     Update method      Time    Convergence         Total energy    Change
  ------------------------------------------------------------------------------
     1 OT DIIS     0.80E-01    6.5     0.00017657      -920.7674959725 -9.21E+02
     2 OT DIIS     0.80E-01    7.8     0.00010450      -920.7676226543 -1.27E-04
     3 OT DIIS     0.80E-01    7.9     0.00004682      -920.7676873629 -6.47E-05
     4 OT DIIS     0.80E-01    7.9     0.00001427      -920.7677002589 -1.29E-05
     5 OT DIIS     0.80E-01    7.8     0.00000530      -920.7677014860 -1.23E-06

  *** SCF run converged in     5 steps ***


  Electronic density on regular grids:       -415.9999924687        0.0000075313
  Core density on regular grids:              415.9999999753       -0.0000000247
  Total charge density on r-space grids:        0.0000075066
  Total charge density g-space grids:           0.0000075066

  Overlap energy of the core charge distribution:               0.00000007792916
  Self energy of the core charge distribution:              -2388.37244906618980
  Core Hamiltonian energy:                                    696.95278908292289
  Hartree energy:                                             990.05295778662548
  Exchange-correlation energy:                               -219.40099936730920

  Total energy:                                              -920.76770148602145

 ENERGY| Total FORCE_EVAL ( QS ) energy [hartree]           -920.767701649905575

 OPT| **************************************************************************
 OPT| Step number                                                             98
 OPT| Optimization method                                                  LBFGS
 OPT| Total energy [hartree]                                     -920.7677016499
 OPT| Effective energy change [hartree]                            -0.0001386971
 OPT| Decrease in energy                                                     YES
 OPT| Used time [s]                                                       48.750
 OPT|
 OPT| Maximum step size                                             0.0166471504
 OPT| Convergence limit for maximum step size                       0.0030000000
 OPT| Maximum step size is converged                                          NO
 OPT|
 OPT| RMS step size                                                 0.0031690823
 OPT| Convergence limit for RMS step size                           0.0015000000
 OPT| RMS step size is converged                                              NO
 OPT|
 OPT| Maximum gradient                                              0.0024600871
 OPT| Convergence limit for maximum gradient                        0.0010000000
 OPT| Maximum gradient is converged                                           NO
 OPT|
 OPT| RMS gradient                                                  0.0004378976
 OPT| Convergence limit for RMS gradient                            0.0003000000
 OPT| RMS gradient is converged                                               NO
 OPT| **************************************************************************
 OPT| Estimated peak process memory after this step [MiB]                   1993

 --------------------------
 OPTIMIZATION STEP:     99
 --------------------------

 Number of electrons:                                                        416
 Number of occupied orbitals:                                                208
 Number of molecular orbitals:                                               208

 Number of orbital functions:                                                318
 Number of independent orbital functions:                                    318

 Extrapolation method: ASPC


 SCF WAVEFUNCTION OPTIMIZATION

  ----------------------------------- OT ---------------------------------------
  Minimizer      : DIIS                : direct inversion
                                         in the iterative subspace
                                         using   7 DIIS vectors
                                         safer DIIS on
  Preconditioner : FULL_SINGLE_INVERSE : inversion of 
                                         H + eS - 2*(Sc)(c^T*H*c+const)(Sc)^T
  Precond_solver : DEFAULT
  stepsize       :    0.08000000                  energy_gap     :    0.08000000
  eps_taylor     :   0.10000E-15                  max_taylor     :             4
  ----------------------------------- OT ---------------------------------------

  Step     Update method      Time    Convergence         Total energy    Change
  ------------------------------------------------------------------------------
     1 OT DIIS     0.80E-01    6.5     0.00016523      -920.7675626777 -9.21E+02
     2 OT DIIS     0.80E-01    7.8     0.00009689      -920.7676722275 -1.10E-04
     3 OT DIIS     0.80E-01    7.9     0.00004736      -920.7677262231 -5.40E-05
     4 OT DIIS     0.80E-01    7.9     0.00001581      -920.7677404867 -1.43E-05
     5 OT DIIS     0.80E-01    7.8     0.00000622      -920.7677420745 -1.59E-06

  *** SCF run converged in     5 steps ***


  Electronic density on regular grids:       -415.9999924918        0.0000075082
  Core density on regular grids:              415.9999999753       -0.0000000247
  Total charge density on r-space grids:        0.0000074835
  Total charge density g-space grids:           0.0000074835

  Overlap energy of the core charge distribution:               0.00000007839789
  Self energy of the core charge distribution:              -2388.37244906618980
  Core Hamiltonian energy:                                    696.93422687400630
  Hartree energy:                                             990.06728188948478
  Exchange-correlation energy:                               -219.39680185024108

  Total energy:                                              -920.76774207454184

 ENERGY| Total FORCE_EVAL ( QS ) energy [hartree]           -920.767742292357525

 OPT| **************************************************************************
 OPT| Step number                                                             99
 OPT| Optimization method                                                  LBFGS
 OPT| Total energy [hartree]                                     -920.7677422924
 OPT| Effective energy change [hartree]                            -0.0000406425
 OPT| Decrease in energy                                                     YES
 OPT| Used time [s]                                                       48.782
 OPT|
 OPT| Maximum step size                                             0.0206694623
 OPT| Convergence limit for maximum step size                       0.0030000000
 OPT| Maximum step size is converged                                          NO
 OPT|
 OPT| RMS step size                                                 0.0031251311
 OPT| Convergence limit for RMS step size                           0.0015000000
 OPT| RMS step size is converged                                              NO
 OPT|
 OPT| Maximum gradient                                              0.0055055056
 OPT| Convergence limit for maximum gradient                        0.0010000000
 OPT| Maximum gradient is converged                                           NO
 OPT|
 OPT| RMS gradient                                                  0.0005156353
 OPT| Convergence limit for RMS gradient                            0.0003000000
 OPT| RMS gradient is converged                                               NO
 OPT| **************************************************************************
 OPT| Estimated peak process memory after this step [MiB]                   1993

 --------------------------
 OPTIMIZATION STEP:    100
 --------------------------

 Number of electrons:                                                        416
 Number of occupied orbitals:                                                208
 Number of molecular orbitals:                                               208

 Number of orbital functions:                                                318
 Number of independent orbital functions:                                    318

 Extrapolation method: ASPC


 SCF WAVEFUNCTION OPTIMIZATION

  ----------------------------------- OT ---------------------------------------
  Minimizer      : DIIS                : direct inversion
                                         in the iterative subspace
                                         using   7 DIIS vectors
                                         safer DIIS on
  Preconditioner : FULL_SINGLE_INVERSE : inversion of 
                                         H + eS - 2*(Sc)(c^T*H*c+const)(Sc)^T
  Precond_solver : DEFAULT
  stepsize       :    0.08000000                  energy_gap     :    0.08000000
  eps_taylor     :   0.10000E-15                  max_taylor     :             4
  ----------------------------------- OT ---------------------------------------

  Step     Update method      Time    Convergence         Total energy    Change
  ------------------------------------------------------------------------------
     1 OT DIIS     0.80E-01    6.5     0.00029869      -920.7672298367 -9.21E+02
     2 OT DIIS     0.80E-01    7.8     0.00017855      -920.7675932168 -3.63E-04
     3 OT DIIS     0.80E-01    7.8     0.00008264      -920.7677838361 -1.91E-04
     4 OT DIIS     0.80E-01    7.9     0.00002525      -920.7678255743 -4.17E-05
     5 OT DIIS     0.80E-01    7.8     0.00000954      -920.7678295182 -3.94E-06

  *** SCF run converged in     5 steps ***


  Electronic density on regular grids:       -415.9999924924        0.0000075076
  Core density on regular grids:              415.9999999753       -0.0000000247
  Total charge density on r-space grids:        0.0000074830
  Total charge density g-space grids:           0.0000074830

  Overlap energy of the core charge distribution:               0.00000007912899
  Self energy of the core charge distribution:              -2388.37244906618980
  Core Hamiltonian energy:                                    696.93643919376620
  Hartree energy:                                             990.06634001729526
  Exchange-correlation energy:                               -219.39815974223055

  Total energy:                                              -920.76782951823020

 ENERGY| Total FORCE_EVAL ( QS ) energy [hartree]           -920.767830038372949

 OPT| **************************************************************************
 OPT| Step number                                                            100
 OPT| Optimization method                                                  LBFGS
 OPT| Total energy [hartree]                                     -920.7678300384
 OPT| Effective energy change [hartree]                            -0.0000877460
 OPT| Decrease in energy                                                     YES
 OPT| Used time [s]                                                       48.753
 OPT|
 OPT| Maximum step size                                             0.0130926260
 OPT| Convergence limit for maximum step size                       0.0030000000
 OPT| Maximum step size is converged                                          NO
 OPT|
 OPT| RMS step size                                                 0.0013709327
 OPT| Convergence limit for RMS step size                           0.0015000000
 OPT| RMS step size is converged                                             YES
 OPT|
 OPT| Maximum gradient                                              0.0030782469
 OPT| Convergence limit for maximum gradient                        0.0010000000
 OPT| Maximum gradient is converged                                           NO
 OPT|
 OPT| RMS gradient                                                  0.0004783749
 OPT| Convergence limit for RMS gradient                            0.0003000000
 OPT| RMS gradient is converged                                               NO
 OPT| **************************************************************************
 OPT| Estimated peak process memory after this step [MiB]                   1993

 --------------------------
 OPTIMIZATION STEP:    101
 --------------------------

 Number of electrons:                                                        416
 Number of occupied orbitals:                                                208
 Number of molecular orbitals:                                               208

 Number of orbital functions:                                                318
 Number of independent orbital functions:                                    318

 Extrapolation method: ASPC


 SCF WAVEFUNCTION OPTIMIZATION

  ----------------------------------- OT ---------------------------------------
  Minimizer      : DIIS                : direct inversion
                                         in the iterative subspace
                                         using   7 DIIS vectors
                                         safer DIIS on
  Preconditioner : FULL_SINGLE_INVERSE : inversion of 
                                         H + eS - 2*(Sc)(c^T*H*c+const)(Sc)^T
  Precond_solver : DEFAULT
  stepsize       :    0.08000000                  energy_gap     :    0.08000000
  eps_taylor     :   0.10000E-15                  max_taylor     :             4
  ----------------------------------- OT ---------------------------------------

  Step     Update method      Time    Convergence         Total energy    Change
  ------------------------------------------------------------------------------
     1 OT DIIS     0.80E-01    6.5     0.00023699      -920.7675381846 -9.21E+02
     2 OT DIIS     0.80E-01    7.8     0.00014212      -920.7677675974 -2.29E-04
     3 OT DIIS     0.80E-01    7.9     0.00006462      -920.7678884982 -1.21E-04
     4 OT DIIS     0.80E-01    7.9     0.00001920      -920.7679133566 -2.49E-05
     5 OT DIIS     0.80E-01    7.8     0.00000728      -920.7679155621 -2.21E-06

  *** SCF run converged in     5 steps ***


  Electronic density on regular grids:       -415.9999924563        0.0000075437
  Core density on regular grids:              415.9999999753       -0.0000000247
  Total charge density on r-space grids:        0.0000075190
  Total charge density g-space grids:           0.0000075190

  Overlap energy of the core charge distribution:               0.00000007812487
  Self energy of the core charge distribution:              -2388.37244906618980
  Core Hamiltonian energy:                                    696.92955891068380
  Hartree energy:                                             990.07047548017954
  Exchange-correlation energy:                               -219.39550096489188

  Total energy:                                              -920.76791556209378

 ENERGY| Total FORCE_EVAL ( QS ) energy [hartree]           -920.767915866571684

 OPT| **************************************************************************
 OPT| Step number                                                            101
 OPT| Optimization method                                                  LBFGS
 OPT| Total energy [hartree]                                     -920.7679158666
 OPT| Effective energy change [hartree]                            -0.0000858282
 OPT| Decrease in energy                                                     YES
 OPT| Used time [s]                                                       48.713
 OPT|
 OPT| Maximum step size                                             0.0098739676
 OPT| Convergence limit for maximum step size                       0.0030000000
 OPT| Maximum step size is converged                                          NO
 OPT|
 OPT| RMS step size                                                 0.0013521738
 OPT| Convergence limit for RMS step size                           0.0015000000
 OPT| RMS step size is converged                                             YES
 OPT|
 OPT| Maximum gradient                                              0.0018201847
 OPT| Convergence limit for maximum gradient                        0.0010000000
 OPT| Maximum gradient is converged                                           NO
 OPT|
 OPT| RMS gradient                                                  0.0003290114
 OPT| Convergence limit for RMS gradient                            0.0003000000
 OPT| RMS gradient is converged                                               NO
 OPT| **************************************************************************
 OPT| Estimated peak process memory after this step [MiB]                   1993

 --------------------------
 OPTIMIZATION STEP:    102
 --------------------------

 Number of electrons:                                                        416
 Number of occupied orbitals:                                                208
 Number of molecular orbitals:                                               208

 Number of orbital functions:                                                318
 Number of independent orbital functions:                                    318

 Extrapolation method: ASPC


 SCF WAVEFUNCTION OPTIMIZATION

  ----------------------------------- OT ---------------------------------------
  Minimizer      : DIIS                : direct inversion
                                         in the iterative subspace
                                         using   7 DIIS vectors
                                         safer DIIS on
  Preconditioner : FULL_SINGLE_INVERSE : inversion of 
                                         H + eS - 2*(Sc)(c^T*H*c+const)(Sc)^T
  Precond_solver : DEFAULT
  stepsize       :    0.08000000                  energy_gap     :    0.08000000
  eps_taylor     :   0.10000E-15                  max_taylor     :             4
  ----------------------------------- OT ---------------------------------------

  Step     Update method      Time    Convergence         Total energy    Change
  ------------------------------------------------------------------------------
     1 OT DIIS     0.80E-01    6.5     0.00009187      -920.7679578053 -9.21E+02
     2 OT DIIS     0.80E-01    7.8     0.00005128      -920.7679909657 -3.32E-05
     3 OT DIIS     0.80E-01    7.9     0.00002411      -920.7680049695 -1.40E-05
     4 OT DIIS     0.80E-01    7.9     0.00000740      -920.7680080600 -3.09E-06

  *** SCF run converged in     4 steps ***


  Electronic density on regular grids:       -415.9999924230        0.0000075770
  Core density on regular grids:              415.9999999754       -0.0000000246
  Total charge density on r-space grids:        0.0000075523
  Total charge density g-space grids:           0.0000075523

  Overlap energy of the core charge distribution:               0.00000007755690
  Self energy of the core charge distribution:              -2388.37244906618980
  Core Hamiltonian energy:                                    696.91577410552679
  Hartree energy:                                             990.08016107659853
  Exchange-correlation energy:                               -219.39149425349106

  Total energy:                                              -920.76800805999869

 ENERGY| Total FORCE_EVAL ( QS ) energy [hartree]           -920.768008387161217

 OPT| **************************************************************************
 OPT| Step number                                                            102
 OPT| Optimization method                                                  LBFGS
 OPT| Total energy [hartree]                                     -920.7680083872
 OPT| Effective energy change [hartree]                            -0.0000925206
 OPT| Decrease in energy                                                     YES
 OPT| Used time [s]                                                       40.902
 OPT|
 OPT| Maximum step size                                             0.0213076553
 OPT| Convergence limit for maximum step size                       0.0030000000
 OPT| Maximum step size is converged                                          NO
 OPT|
 OPT| RMS step size                                                 0.0025687157
 OPT| Convergence limit for RMS step size                           0.0015000000
 OPT| RMS step size is converged                                              NO
 OPT|
 OPT| Maximum gradient                                              0.0019484570
 OPT| Convergence limit for maximum gradient                        0.0010000000
 OPT| Maximum gradient is converged                                           NO
 OPT|
 OPT| RMS gradient                                                  0.0003701774
 OPT| Convergence limit for RMS gradient                            0.0003000000
 OPT| RMS gradient is converged                                               NO
 OPT| **************************************************************************
 OPT| Estimated peak process memory after this step [MiB]                   1993

 --------------------------
 OPTIMIZATION STEP:    103
 --------------------------

 Number of electrons:                                                        416
 Number of occupied orbitals:                                                208
 Number of molecular orbitals:                                               208

 Number of orbital functions:                                                318
 Number of independent orbital functions:                                    318

 Extrapolation method: ASPC


 SCF WAVEFUNCTION OPTIMIZATION

  ----------------------------------- OT ---------------------------------------
  Minimizer      : DIIS                : direct inversion
                                         in the iterative subspace
                                         using   7 DIIS vectors
                                         safer DIIS on
  Preconditioner : FULL_SINGLE_INVERSE : inversion of 
                                         H + eS - 2*(Sc)(c^T*H*c+const)(Sc)^T
  Precond_solver : DEFAULT
  stepsize       :    0.08000000                  energy_gap     :    0.08000000
  eps_taylor     :   0.10000E-15                  max_taylor     :             4
  ----------------------------------- OT ---------------------------------------

  Step     Update method      Time    Convergence         Total energy    Change
  ------------------------------------------------------------------------------
     1 OT DIIS     0.80E-01    6.5     0.00007767      -920.7680166068 -9.21E+02
     2 OT DIIS     0.80E-01    7.8     0.00004270      -920.7680392728 -2.27E-05
     3 OT DIIS     0.80E-01    7.8     0.00002383      -920.7680479513 -8.68E-06
     4 OT DIIS     0.80E-01    7.9     0.00000770      -920.7680514529 -3.50E-06

  *** SCF run converged in     4 steps ***


  Electronic density on regular grids:       -415.9999924037        0.0000075963
  Core density on regular grids:              415.9999999754       -0.0000000246
  Total charge density on r-space grids:        0.0000075716
  Total charge density g-space grids:           0.0000075716

  Overlap energy of the core charge distribution:               0.00000007806499
  Self energy of the core charge distribution:              -2388.37244906618980
  Core Hamiltonian energy:                                    696.90266173300347
  Hartree energy:                                             990.09036190966276
  Exchange-correlation energy:                               -219.38862610743814

  Total energy:                                              -920.76805145289654

 ENERGY| Total FORCE_EVAL ( QS ) energy [hartree]           -920.768051834253356

 OPT| **************************************************************************
 OPT| Step number                                                            103
 OPT| Optimization method                                                  LBFGS
 OPT| Total energy [hartree]                                     -920.7680518343
 OPT| Effective energy change [hartree]                            -0.0000434471
 OPT| Decrease in energy                                                     YES
 OPT| Used time [s]                                                       40.909
 OPT|
 OPT| Maximum step size                                             0.0282180738
 OPT| Convergence limit for maximum step size                       0.0030000000
 OPT| Maximum step size is converged                                          NO
 OPT|
 OPT| RMS step size                                                 0.0039231685
 OPT| Convergence limit for RMS step size                           0.0015000000
 OPT| RMS step size is converged                                              NO
 OPT|
 OPT| Maximum gradient                                              0.0038384134
 OPT| Convergence limit for maximum gradient                        0.0010000000
 OPT| Maximum gradient is converged                                           NO
 OPT|
 OPT| RMS gradient                                                  0.0004958247
 OPT| Convergence limit for RMS gradient                            0.0003000000
 OPT| RMS gradient is converged                                               NO
 OPT| **************************************************************************
 OPT| Estimated peak process memory after this step [MiB]                   1993

 --------------------------
 OPTIMIZATION STEP:    104
 --------------------------

 Number of electrons:                                                        416
 Number of occupied orbitals:                                                208
 Number of molecular orbitals:                                               208

 Number of orbital functions:                                                318
 Number of independent orbital functions:                                    318

 Extrapolation method: ASPC


 SCF WAVEFUNCTION OPTIMIZATION

  ----------------------------------- OT ---------------------------------------
  Minimizer      : DIIS                : direct inversion
                                         in the iterative subspace
                                         using   7 DIIS vectors
                                         safer DIIS on
  Preconditioner : FULL_SINGLE_INVERSE : inversion of 
                                         H + eS - 2*(Sc)(c^T*H*c+const)(Sc)^T
  Precond_solver : DEFAULT
  stepsize       :    0.08000000                  energy_gap     :    0.08000000
  eps_taylor     :   0.10000E-15                  max_taylor     :             4
  ----------------------------------- OT ---------------------------------------

  Step     Update method      Time    Convergence         Total energy    Change
  ------------------------------------------------------------------------------
     1 OT DIIS     0.80E-01    6.5     0.00016355      -920.7679186553 -9.21E+02
     2 OT DIIS     0.80E-01    7.8     0.00009692      -920.7680255873 -1.07E-04
     3 OT DIIS     0.80E-01    7.8     0.00005043      -920.7680777031 -5.21E-05
     4 OT DIIS     0.80E-01    7.9     0.00001581      -920.7680938622 -1.62E-05
     5 OT DIIS     0.80E-01    7.8     0.00000586      -920.7680954812 -1.62E-06

  *** SCF run converged in     5 steps ***


  Electronic density on regular grids:       -415.9999923955        0.0000076045
  Core density on regular grids:              415.9999999754       -0.0000000246
  Total charge density on r-space grids:        0.0000075799
  Total charge density g-space grids:           0.0000075799

  Overlap energy of the core charge distribution:               0.00000007690047
  Self energy of the core charge distribution:              -2388.37244906618980
  Core Hamiltonian energy:                                    696.90583047256655
  Hartree energy:                                             990.08679646773521
  Exchange-correlation energy:                               -219.38827343224827

  Total energy:                                              -920.76809548123583

 ENERGY| Total FORCE_EVAL ( QS ) energy [hartree]           -920.768095675708764

 OPT| **************************************************************************
 OPT| Step number                                                            104
 OPT| Optimization method                                                  LBFGS
 OPT| Total energy [hartree]                                     -920.7680956757
 OPT| Effective energy change [hartree]                            -0.0000438415
 OPT| Decrease in energy                                                     YES
 OPT| Used time [s]                                                       48.784
 OPT|
 OPT| Maximum step size                                             0.0108560877
 OPT| Convergence limit for maximum step size                       0.0030000000
 OPT| Maximum step size is converged                                          NO
 OPT|
 OPT| RMS step size                                                 0.0013521038
 OPT| Convergence limit for RMS step size                           0.0015000000
 OPT| RMS step size is converged                                             YES
 OPT|
 OPT| Maximum gradient                                              0.0034109282
 OPT| Convergence limit for maximum gradient                        0.0010000000
 OPT| Maximum gradient is converged                                           NO
 OPT|
 OPT| RMS gradient                                                  0.0005290917
 OPT| Convergence limit for RMS gradient                            0.0003000000
 OPT| RMS gradient is converged                                               NO
 OPT| **************************************************************************
 OPT| Estimated peak process memory after this step [MiB]                   1993

 --------------------------
 OPTIMIZATION STEP:    105
 --------------------------

 Number of electrons:                                                        416
 Number of occupied orbitals:                                                208
 Number of molecular orbitals:                                               208

 Number of orbital functions:                                                318
 Number of independent orbital functions:                                    318

 Extrapolation method: ASPC


 SCF WAVEFUNCTION OPTIMIZATION

  ----------------------------------- OT ---------------------------------------
  Minimizer      : DIIS                : direct inversion
                                         in the iterative subspace
                                         using   7 DIIS vectors
                                         safer DIIS on
  Preconditioner : FULL_SINGLE_INVERSE : inversion of 
                                         H + eS - 2*(Sc)(c^T*H*c+const)(Sc)^T
  Precond_solver : DEFAULT
  stepsize       :    0.08000000                  energy_gap     :    0.08000000
  eps_taylor     :   0.10000E-15                  max_taylor     :             4
  ----------------------------------- OT ---------------------------------------

  Step     Update method      Time    Convergence         Total energy    Change
  ------------------------------------------------------------------------------
     1 OT DIIS     0.80E-01    6.5     0.00018497      -920.7679156551 -9.21E+02
     2 OT DIIS     0.80E-01    7.8     0.00010548      -920.7680526033 -1.37E-04
     3 OT DIIS     0.80E-01    7.8     0.00004802      -920.7681170656 -6.45E-05
     4 OT DIIS     0.80E-01    7.9     0.00001876      -920.7681302511 -1.32E-05
     5 OT DIIS     0.80E-01    7.8     0.00000660      -920.7681325624 -2.31E-06

  *** SCF run converged in     5 steps ***


  Electronic density on regular grids:       -415.9999924024        0.0000075976
  Core density on regular grids:              415.9999999754       -0.0000000246
  Total charge density on r-space grids:        0.0000075730
  Total charge density g-space grids:           0.0000075730

  Overlap energy of the core charge distribution:               0.00000007783282
  Self energy of the core charge distribution:              -2388.37244906618980
  Core Hamiltonian energy:                                    696.91244035098953
  Hartree energy:                                             990.08268430527278
  Exchange-correlation energy:                               -219.39080823030949

  Total energy:                                              -920.76813256240428

 ENERGY| Total FORCE_EVAL ( QS ) energy [hartree]           -920.768132817496166

 OPT| **************************************************************************
 OPT| Step number                                                            105
 OPT| Optimization method                                                  LBFGS
 OPT| Total energy [hartree]                                     -920.7681328175
 OPT| Effective energy change [hartree]                            -0.0000371418
 OPT| Decrease in energy                                                     YES
 OPT| Used time [s]                                                       48.784
 OPT|
 OPT| Maximum step size                                             0.0042632282
 OPT| Convergence limit for maximum step size                       0.0030000000
 OPT| Maximum step size is converged                                          NO
 OPT|
 OPT| RMS step size                                                 0.0006512350
 OPT| Convergence limit for RMS step size                           0.0015000000
 OPT| RMS step size is converged                                             YES
 OPT|
 OPT| Maximum gradient                                              0.0007738245
 OPT| Convergence limit for maximum gradient                        0.0010000000
 OPT| Maximum gradient is converged                                          YES
 OPT|
 OPT| RMS gradient                                                  0.0001590368
 OPT| Convergence limit for RMS gradient                            0.0003000000
 OPT| RMS gradient is converged                                              YES
 OPT| **************************************************************************
 OPT| Estimated peak process memory after this step [MiB]                   1993

 --------------------------
 OPTIMIZATION STEP:    106
 --------------------------

 Number of electrons:                                                        416
 Number of occupied orbitals:                                                208
 Number of molecular orbitals:                                               208

 Number of orbital functions:                                                318
 Number of independent orbital functions:                                    318

 Extrapolation method: ASPC


 SCF WAVEFUNCTION OPTIMIZATION

  ----------------------------------- OT ---------------------------------------
  Minimizer      : DIIS                : direct inversion
                                         in the iterative subspace
                                         using   7 DIIS vectors
                                         safer DIIS on
  Preconditioner : FULL_SINGLE_INVERSE : inversion of 
                                         H + eS - 2*(Sc)(c^T*H*c+const)(Sc)^T
  Precond_solver : DEFAULT
  stepsize       :    0.08000000                  energy_gap     :    0.08000000
  eps_taylor     :   0.10000E-15                  max_taylor     :             4
  ----------------------------------- OT ---------------------------------------

  Step     Update method      Time    Convergence         Total energy    Change
  ------------------------------------------------------------------------------
     1 OT DIIS     0.80E-01    6.5     0.00012486      -920.7680574648 -9.21E+02
     2 OT DIIS     0.80E-01    7.8     0.00006593      -920.7681177777 -6.03E-05
     3 OT DIIS     0.80E-01    7.8     0.00002936      -920.7681407585 -2.30E-05
     4 OT DIIS     0.80E-01    7.9     0.00001149      -920.7681451640 -4.41E-06
     5 OT DIIS     0.80E-01    7.9     0.00000436      -920.7681459864 -8.22E-07

  *** SCF run converged in     5 steps ***


  Electronic density on regular grids:       -415.9999924043        0.0000075957
  Core density on regular grids:              415.9999999754       -0.0000000246
  Total charge density on r-space grids:        0.0000075711
  Total charge density g-space grids:           0.0000075711

  Overlap energy of the core charge distribution:               0.00000007797273
  Self energy of the core charge distribution:              -2388.37244906618980
  Core Hamiltonian energy:                                    696.91255729553552
  Hartree energy:                                             990.08271895231917
  Exchange-correlation energy:                               -219.39097324602082

  Total energy:                                              -920.76814598638327

 ENERGY| Total FORCE_EVAL ( QS ) energy [hartree]           -920.768146097959630

 OPT| **************************************************************************
 OPT| Step number                                                            106
 OPT| Optimization method                                                  LBFGS
 OPT| Total energy [hartree]                                     -920.7681460980
 OPT| Effective energy change [hartree]                            -0.0000132805
 OPT| Decrease in energy                                                     YES
 OPT| Used time [s]                                                       48.792
 OPT|
 OPT| Maximum step size                                             0.0039487934
 OPT| Convergence limit for maximum step size                       0.0030000000
 OPT| Maximum step size is converged                                          NO
 OPT|
 OPT| RMS step size                                                 0.0005503982
 OPT| Convergence limit for RMS step size                           0.0015000000
 OPT| RMS step size is converged                                             YES
 OPT|
 OPT| Maximum gradient                                              0.0009511350
 OPT| Convergence limit for maximum gradient                        0.0010000000
 OPT| Maximum gradient is converged                                          YES
 OPT|
 OPT| RMS gradient                                                  0.0001406505
 OPT| Convergence limit for RMS gradient                            0.0003000000
 OPT| RMS gradient is converged                                              YES
 OPT| **************************************************************************
 OPT| Estimated peak process memory after this step [MiB]                   1993

 --------------------------
 OPTIMIZATION STEP:    107
 --------------------------

 Number of electrons:                                                        416
 Number of occupied orbitals:                                                208
 Number of molecular orbitals:                                               208

 Number of orbital functions:                                                318
 Number of independent orbital functions:                                    318

 Extrapolation method: ASPC


 SCF WAVEFUNCTION OPTIMIZATION

  ----------------------------------- OT ---------------------------------------
  Minimizer      : DIIS                : direct inversion
                                         in the iterative subspace
                                         using   7 DIIS vectors
                                         safer DIIS on
  Preconditioner : FULL_SINGLE_INVERSE : inversion of 
                                         H + eS - 2*(Sc)(c^T*H*c+const)(Sc)^T
  Precond_solver : DEFAULT
  stepsize       :    0.08000000                  energy_gap     :    0.08000000
  eps_taylor     :   0.10000E-15                  max_taylor     :             4
  ----------------------------------- OT ---------------------------------------

  Step     Update method      Time    Convergence         Total energy    Change
  ------------------------------------------------------------------------------
     1 OT DIIS     0.80E-01    6.5     0.00007764      -920.7681551569 -9.21E+02
     2 OT DIIS     0.80E-01    7.8     0.00004371      -920.7681788482 -2.37E-05
     3 OT DIIS     0.80E-01    7.8     0.00002161      -920.7681890650 -1.02E-05
     4 OT DIIS     0.80E-01    7.9     0.00000753      -920.7681916454 -2.58E-06

  *** SCF run converged in     4 steps ***


  Electronic density on regular grids:       -415.9999924143        0.0000075857
  Core density on regular grids:              415.9999999753       -0.0000000247
  Total charge density on r-space grids:        0.0000075610
  Total charge density g-space grids:           0.0000075610

  Overlap energy of the core charge distribution:               0.00000007814672
  Self energy of the core charge distribution:              -2388.37244906618980
  Core Hamiltonian energy:                                    696.91605706557766
  Hartree energy:                                             990.07990789091161
  Exchange-correlation energy:                               -219.39170761382812

  Total energy:                                              -920.76819164538210

 ENERGY| Total FORCE_EVAL ( QS ) energy [hartree]           -920.768192003653439

 OPT| **************************************************************************
 OPT| Step number                                                            107
 OPT| Optimization method                                                  LBFGS
 OPT| Total energy [hartree]                                     -920.7681920037
 OPT| Effective energy change [hartree]                            -0.0000459057
 OPT| Decrease in energy                                                     YES
 OPT| Used time [s]                                                       40.890
 OPT|
 OPT| Maximum step size                                             0.0226820201
 OPT| Convergence limit for maximum step size                       0.0030000000
 OPT| Maximum step size is converged                                          NO
 OPT|
 OPT| RMS step size                                                 0.0029627843
 OPT| Convergence limit for RMS step size                           0.0015000000
 OPT| RMS step size is converged                                              NO
 OPT|
 OPT| Maximum gradient                                              0.0015203674
 OPT| Convergence limit for maximum gradient                        0.0010000000
 OPT| Maximum gradient is converged                                           NO
 OPT|
 OPT| RMS gradient                                                  0.0002354740
 OPT| Convergence limit for RMS gradient                            0.0003000000
 OPT| RMS gradient is converged                                              YES
 OPT| **************************************************************************
 OPT| Estimated peak process memory after this step [MiB]                   1993

 --------------------------
 OPTIMIZATION STEP:    108
 --------------------------

 Number of electrons:                                                        416
 Number of occupied orbitals:                                                208
 Number of molecular orbitals:                                               208

 Number of orbital functions:                                                318
 Number of independent orbital functions:                                    318

 Extrapolation method: ASPC


 SCF WAVEFUNCTION OPTIMIZATION

  ----------------------------------- OT ---------------------------------------
  Minimizer      : DIIS                : direct inversion
                                         in the iterative subspace
                                         using   7 DIIS vectors
                                         safer DIIS on
  Preconditioner : FULL_SINGLE_INVERSE : inversion of 
                                         H + eS - 2*(Sc)(c^T*H*c+const)(Sc)^T
  Precond_solver : DEFAULT
  stepsize       :    0.08000000                  energy_gap     :    0.08000000
  eps_taylor     :   0.10000E-15                  max_taylor     :             4
  ----------------------------------- OT ---------------------------------------

  Step     Update method      Time    Convergence         Total energy    Change
  ------------------------------------------------------------------------------
     1 OT DIIS     0.80E-01    6.5     0.00007352      -920.7681952650 -9.21E+02
     2 OT DIIS     0.80E-01    7.8     0.00004051      -920.7682154555 -2.02E-05
     3 OT DIIS     0.80E-01    7.8     0.00002274      -920.7682230809 -7.63E-06
     4 OT DIIS     0.80E-01    7.8     0.00000698      -920.7682262731 -3.19E-06

  *** SCF run converged in     4 steps ***


  Electronic density on regular grids:       -415.9999924303        0.0000075697
  Core density on regular grids:              415.9999999753       -0.0000000247
  Total charge density on r-space grids:        0.0000075450
  Total charge density g-space grids:           0.0000075450

  Overlap energy of the core charge distribution:               0.00000007866342
  Self energy of the core charge distribution:              -2388.37244906618980
  Core Hamiltonian energy:                                    696.92190974370283
  Hartree energy:                                             990.07588702258988
  Exchange-correlation energy:                               -219.39357405190628

  Total energy:                                              -920.76822627313982

 ENERGY| Total FORCE_EVAL ( QS ) energy [hartree]           -920.768226571766036

 OPT| **************************************************************************
 OPT| Step number                                                            108
 OPT| Optimization method                                                  LBFGS
 OPT| Total energy [hartree]                                     -920.7682265718
 OPT| Effective energy change [hartree]                            -0.0000345681
 OPT| Decrease in energy                                                     YES
 OPT| Used time [s]                                                       40.879
 OPT|
 OPT| Maximum step size                                             0.0281631091
 OPT| Convergence limit for maximum step size                       0.0030000000
 OPT| Maximum step size is converged                                          NO
 OPT|
 OPT| RMS step size                                                 0.0033985700
 OPT| Convergence limit for RMS step size                           0.0015000000
 OPT| RMS step size is converged                                              NO
 OPT|
 OPT| Maximum gradient                                              0.0035060513
 OPT| Convergence limit for maximum gradient                        0.0010000000
 OPT| Maximum gradient is converged                                           NO
 OPT|
 OPT| RMS gradient                                                  0.0004326230
 OPT| Convergence limit for RMS gradient                            0.0003000000
 OPT| RMS gradient is converged                                               NO
 OPT| **************************************************************************
 OPT| Estimated peak process memory after this step [MiB]                   1993

 --------------------------
 OPTIMIZATION STEP:    109
 --------------------------

 Number of electrons:                                                        416
 Number of occupied orbitals:                                                208
 Number of molecular orbitals:                                               208

 Number of orbital functions:                                                318
 Number of independent orbital functions:                                    318

 Extrapolation method: ASPC


 SCF WAVEFUNCTION OPTIMIZATION

  ----------------------------------- OT ---------------------------------------
  Minimizer      : DIIS                : direct inversion
                                         in the iterative subspace
                                         using   7 DIIS vectors
                                         safer DIIS on
  Preconditioner : FULL_SINGLE_INVERSE : inversion of 
                                         H + eS - 2*(Sc)(c^T*H*c+const)(Sc)^T
  Precond_solver : DEFAULT
  stepsize       :    0.08000000                  energy_gap     :    0.08000000
  eps_taylor     :   0.10000E-15                  max_taylor     :             4
  ----------------------------------- OT ---------------------------------------

  Step     Update method      Time    Convergence         Total energy    Change
  ------------------------------------------------------------------------------
     1 OT DIIS     0.80E-01    6.5     0.00008066      -920.7682327331 -9.21E+02
     2 OT DIIS     0.80E-01    7.8     0.00004119      -920.7682563687 -2.36E-05
     3 OT DIIS     0.80E-01    7.8     0.00002200      -920.7682641289 -7.76E-06
     4 OT DIIS     0.80E-01    7.8     0.00000769      -920.7682670094 -2.88E-06

  *** SCF run converged in     4 steps ***


  Electronic density on regular grids:       -415.9999924286        0.0000075714
  Core density on regular grids:              415.9999999754       -0.0000000246
  Total charge density on r-space grids:        0.0000075468
  Total charge density g-space grids:           0.0000075468

  Overlap energy of the core charge distribution:               0.00000007836841
  Self energy of the core charge distribution:              -2388.37244906618980
  Core Hamiltonian energy:                                    696.92552584669136
  Hartree energy:                                             990.07275067420244
  Exchange-correlation energy:                               -219.39409454243074

  Total energy:                                              -920.76826700935817

 ENERGY| Total FORCE_EVAL ( QS ) energy [hartree]           -920.768267375347705

 OPT| **************************************************************************
 OPT| Step number                                                            109
 OPT| Optimization method                                                  LBFGS
 OPT| Total energy [hartree]                                     -920.7682673753
 OPT| Effective energy change [hartree]                            -0.0000408036
 OPT| Decrease in energy                                                     YES
 OPT| Used time [s]                                                       40.895
 OPT|
 OPT| Maximum step size                                             0.0200271866
 OPT| Convergence limit for maximum step size                       0.0030000000
 OPT| Maximum step size is converged                                          NO
 OPT|
 OPT| RMS step size                                                 0.0023392649
 OPT| Convergence limit for RMS step size                           0.0015000000
 OPT| RMS step size is converged                                              NO
 OPT|
 OPT| Maximum gradient                                              0.0020388473
 OPT| Convergence limit for maximum gradient                        0.0010000000
 OPT| Maximum gradient is converged                                           NO
 OPT|
 OPT| RMS gradient                                                  0.0002749452
 OPT| Convergence limit for RMS gradient                            0.0003000000
 OPT| RMS gradient is converged                                              YES
 OPT| **************************************************************************
 OPT| Estimated peak process memory after this step [MiB]                   1993

 --------------------------
 OPTIMIZATION STEP:    110
 --------------------------

 Number of electrons:                                                        416
 Number of occupied orbitals:                                                208
 Number of molecular orbitals:                                               208

 Number of orbital functions:                                                318
 Number of independent orbital functions:                                    318

 Extrapolation method: ASPC


 SCF WAVEFUNCTION OPTIMIZATION

  ----------------------------------- OT ---------------------------------------
  Minimizer      : DIIS                : direct inversion
                                         in the iterative subspace
                                         using   7 DIIS vectors
                                         safer DIIS on
  Preconditioner : FULL_SINGLE_INVERSE : inversion of 
                                         H + eS - 2*(Sc)(c^T*H*c+const)(Sc)^T
  Precond_solver : DEFAULT
  stepsize       :    0.08000000                  energy_gap     :    0.08000000
  eps_taylor     :   0.10000E-15                  max_taylor     :             4
  ----------------------------------- OT ---------------------------------------

  Step     Update method      Time    Convergence         Total energy    Change
  ------------------------------------------------------------------------------
     1 OT DIIS     0.80E-01    6.5     0.00009546      -920.7682533791 -9.21E+02
     2 OT DIIS     0.80E-01    7.9     0.00005705      -920.7682904487 -3.71E-05
     3 OT DIIS     0.80E-01    7.9     0.00002626      -920.7683100442 -1.96E-05
     4 OT DIIS     0.80E-01    7.8     0.00000825      -920.7683146243 -4.58E-06

  *** SCF run converged in     4 steps ***


  Electronic density on regular grids:       -415.9999924172        0.0000075828
  Core density on regular grids:              415.9999999753       -0.0000000247
  Total charge density on r-space grids:        0.0000075581
  Total charge density g-space grids:           0.0000075581

  Overlap energy of the core charge distribution:               0.00000007809539
  Self energy of the core charge distribution:              -2388.37244906618980
  Core Hamiltonian energy:                                    696.92994001899808
  Hartree energy:                                             990.06903947056242
  Exchange-correlation energy:                               -219.39484512576757

  Total energy:                                              -920.76831462430141

 ENERGY| Total FORCE_EVAL ( QS ) energy [hartree]           -920.768315038718356

 OPT| **************************************************************************
 OPT| Step number                                                            110
 OPT| Optimization method                                                  LBFGS
 OPT| Total energy [hartree]                                     -920.7683150387
 OPT| Effective energy change [hartree]                            -0.0000476634
 OPT| Decrease in energy                                                     YES
 OPT| Used time [s]                                                       40.941
 OPT|
 OPT| Maximum step size                                             0.0337892782
 OPT| Convergence limit for maximum step size                       0.0030000000
 OPT| Maximum step size is converged                                          NO
 OPT|
 OPT| RMS step size                                                 0.0036638235
 OPT| Convergence limit for RMS step size                           0.0015000000
 OPT| RMS step size is converged                                              NO
 OPT|
 OPT| Maximum gradient                                              0.0018586189
 OPT| Convergence limit for maximum gradient                        0.0010000000
 OPT| Maximum gradient is converged                                           NO
 OPT|
 OPT| RMS gradient                                                  0.0002221330
 OPT| Convergence limit for RMS gradient                            0.0003000000
 OPT| RMS gradient is converged                                              YES
 OPT| **************************************************************************
 OPT| Estimated peak process memory after this step [MiB]                   1993

 --------------------------
 OPTIMIZATION STEP:    111
 --------------------------

 Number of electrons:                                                        416
 Number of occupied orbitals:                                                208
 Number of molecular orbitals:                                               208

 Number of orbital functions:                                                318
 Number of independent orbital functions:                                    318

 Extrapolation method: ASPC


 SCF WAVEFUNCTION OPTIMIZATION

  ----------------------------------- OT ---------------------------------------
  Minimizer      : DIIS                : direct inversion
                                         in the iterative subspace
                                         using   7 DIIS vectors
                                         safer DIIS on
  Preconditioner : FULL_SINGLE_INVERSE : inversion of 
                                         H + eS - 2*(Sc)(c^T*H*c+const)(Sc)^T
  Precond_solver : DEFAULT
  stepsize       :    0.08000000                  energy_gap     :    0.08000000
  eps_taylor     :   0.10000E-15                  max_taylor     :             4
  ----------------------------------- OT ---------------------------------------

  Step     Update method      Time    Convergence         Total energy    Change
  ------------------------------------------------------------------------------
     1 OT DIIS     0.80E-01    6.5     0.00012092      -920.7682387485 -9.21E+02
     2 OT DIIS     0.80E-01    8.0     0.00007661      -920.7683012213 -6.25E-05
     3 OT DIIS     0.80E-01    8.3     0.00002207      -920.7683436916 -4.25E-05
     4 OT DIIS     0.80E-01    7.8     0.00000825      -920.7683465907 -2.90E-06

  *** SCF run converged in     4 steps ***


  Electronic density on regular grids:       -415.9999924027        0.0000075973
  Core density on regular grids:              415.9999999754       -0.0000000246
  Total charge density on r-space grids:        0.0000075727
  Total charge density g-space grids:           0.0000075727

  Overlap energy of the core charge distribution:               0.00000007803006
  Self energy of the core charge distribution:              -2388.37244906618980
  Core Hamiltonian energy:                                    696.93271926347848
  Hartree energy:                                             990.06690756946148
  Exchange-correlation energy:                               -219.39552443547259

  Total energy:                                              -920.76834659069232

 ENERGY| Total FORCE_EVAL ( QS ) energy [hartree]           -920.768346946136035

 OPT| **************************************************************************
 OPT| Step number                                                            111
 OPT| Optimization method                                                  LBFGS
 OPT| Total energy [hartree]                                     -920.7683469461
 OPT| Effective energy change [hartree]                            -0.0000319074
 OPT| Decrease in energy                                                     YES
 OPT| Used time [s]                                                       42.292
 OPT|
 OPT| Maximum step size                                             0.0175779187
 OPT| Convergence limit for maximum step size                       0.0030000000
 OPT| Maximum step size is converged                                          NO
 OPT|
 OPT| RMS step size                                                 0.0017302546
 OPT| Convergence limit for RMS step size                           0.0015000000
 OPT| RMS step size is converged                                              NO
 OPT|
 OPT| Maximum gradient                                              0.0014006773
 OPT| Convergence limit for maximum gradient                        0.0010000000
 OPT| Maximum gradient is converged                                           NO
 OPT|
 OPT| RMS gradient                                                  0.0002481717
 OPT| Convergence limit for RMS gradient                            0.0003000000
 OPT| RMS gradient is converged                                              YES
 OPT| **************************************************************************
 OPT| Estimated peak process memory after this step [MiB]                   1993

 --------------------------
 OPTIMIZATION STEP:    112
 --------------------------

 Number of electrons:                                                        416
 Number of occupied orbitals:                                                208
 Number of molecular orbitals:                                               208

 Number of orbital functions:                                                318
 Number of independent orbital functions:                                    318

 Extrapolation method: ASPC


 SCF WAVEFUNCTION OPTIMIZATION

  ----------------------------------- OT ---------------------------------------
  Minimizer      : DIIS                : direct inversion
                                         in the iterative subspace
                                         using   7 DIIS vectors
                                         safer DIIS on
  Preconditioner : FULL_SINGLE_INVERSE : inversion of 
                                         H + eS - 2*(Sc)(c^T*H*c+const)(Sc)^T
  Precond_solver : DEFAULT
  stepsize       :    0.08000000                  energy_gap     :    0.08000000
  eps_taylor     :   0.10000E-15                  max_taylor     :             4
  ----------------------------------- OT ---------------------------------------

  Step     Update method      Time    Convergence         Total energy    Change
  ------------------------------------------------------------------------------
     1 OT DIIS     0.80E-01    6.5     0.00022107      -920.7680320102 -9.21E+02
     2 OT DIIS     0.80E-01    7.9     0.00014236      -920.7682429323 -2.11E-04
     3 OT DIIS     0.80E-01    7.9     0.00003449      -920.7683947121 -1.52E-04
     4 OT DIIS     0.80E-01    7.8     0.00001345      -920.7684012760 -6.56E-06
     5 OT DIIS     0.80E-01    7.9     0.00000520      -920.7684022168 -9.41E-07

  *** SCF run converged in     5 steps ***


  Electronic density on regular grids:       -415.9999923703        0.0000076297
  Core density on regular grids:              415.9999999754       -0.0000000246
  Total charge density on r-space grids:        0.0000076051
  Total charge density g-space grids:           0.0000076051

  Overlap energy of the core charge distribution:               0.00000007824397
  Self energy of the core charge distribution:              -2388.37244906618980
  Core Hamiltonian energy:                                    696.94270280144360
  Hartree energy:                                             990.05953468878579
  Exchange-correlation energy:                               -219.39819071905200

  Total energy:                                              -920.76840221676855

 ENERGY| Total FORCE_EVAL ( QS ) energy [hartree]           -920.768402382321710

 OPT| **************************************************************************
 OPT| Step number                                                            112
 OPT| Optimization method                                                  LBFGS
 OPT| Total energy [hartree]                                     -920.7684023823
 OPT| Effective energy change [hartree]                            -0.0000554362
 OPT| Decrease in energy                                                     YES
 OPT| Used time [s]                                                       49.157
 OPT|
 OPT| Maximum step size                                             0.0643492062
 OPT| Convergence limit for maximum step size                       0.0030000000
 OPT| Maximum step size is converged                                          NO
 OPT|
 OPT| RMS step size                                                 0.0062719789
 OPT| Convergence limit for RMS step size                           0.0015000000
 OPT| RMS step size is converged                                              NO
 OPT|
 OPT| Maximum gradient                                              0.0022045226
 OPT| Convergence limit for maximum gradient                        0.0010000000
 OPT| Maximum gradient is converged                                           NO
 OPT|
 OPT| RMS gradient                                                  0.0003478238
 OPT| Convergence limit for RMS gradient                            0.0003000000
 OPT| RMS gradient is converged                                               NO
 OPT| **************************************************************************
 OPT| Estimated peak process memory after this step [MiB]                   1993

 --------------------------
 OPTIMIZATION STEP:    113
 --------------------------

 Number of electrons:                                                        416
 Number of occupied orbitals:                                                208
 Number of molecular orbitals:                                               208

 Number of orbital functions:                                                318
 Number of independent orbital functions:                                    318

 Extrapolation method: ASPC


 SCF WAVEFUNCTION OPTIMIZATION

  ----------------------------------- OT ---------------------------------------
  Minimizer      : DIIS                : direct inversion
                                         in the iterative subspace
                                         using   7 DIIS vectors
                                         safer DIIS on
  Preconditioner : FULL_SINGLE_INVERSE : inversion of 
                                         H + eS - 2*(Sc)(c^T*H*c+const)(Sc)^T
  Precond_solver : DEFAULT
  stepsize       :    0.08000000                  energy_gap     :    0.08000000
  eps_taylor     :   0.10000E-15                  max_taylor     :             4
  ----------------------------------- OT ---------------------------------------

  Step     Update method      Time    Convergence         Total energy    Change
  ------------------------------------------------------------------------------
     1 OT DIIS     0.80E-01    6.5     0.00019074      -920.7682260520 -9.21E+02
     2 OT DIIS     0.80E-01    7.8     0.00012001      -920.7683805379 -1.54E-04
     3 OT DIIS     0.80E-01    7.9     0.00003973      -920.7684816307 -1.01E-04
     4 OT DIIS     0.80E-01    7.8     0.00001372      -920.7684908164 -9.19E-06
     5 OT DIIS     0.80E-01    7.8     0.00000502      -920.7684918786 -1.06E-06

  *** SCF run converged in     5 steps ***


  Electronic density on regular grids:       -415.9999923423        0.0000076577
  Core density on regular grids:              415.9999999753       -0.0000000247
  Total charge density on r-space grids:        0.0000076331
  Total charge density g-space grids:           0.0000076331

  Overlap energy of the core charge distribution:               0.00000007848545
  Self energy of the core charge distribution:              -2388.37244906618980
  Core Hamiltonian energy:                                    696.95431378105320
  Hartree energy:                                             990.05100038990940
  Exchange-correlation energy:                               -219.40135706190378

  Total energy:                                              -920.76849187864559

 ENERGY| Total FORCE_EVAL ( QS ) energy [hartree]           -920.768492016372079

 OPT| **************************************************************************
 OPT| Step number                                                            113
 OPT| Optimization method                                                  LBFGS
 OPT| Total energy [hartree]                                     -920.7684920164
 OPT| Effective energy change [hartree]                            -0.0000896341
 OPT| Decrease in energy                                                     YES
 OPT| Used time [s]                                                       48.816
 OPT|
 OPT| Maximum step size                                             0.0615221973
 OPT| Convergence limit for maximum step size                       0.0030000000
 OPT| Maximum step size is converged                                          NO
 OPT|
 OPT| RMS step size                                                 0.0057564850
 OPT| Convergence limit for RMS step size                           0.0015000000
 OPT| RMS step size is converged                                              NO
 OPT|
 OPT| Maximum gradient                                              0.0043327783
 OPT| Convergence limit for maximum gradient                        0.0010000000
 OPT| Maximum gradient is converged                                           NO
 OPT|
 OPT| RMS gradient                                                  0.0005075540
 OPT| Convergence limit for RMS gradient                            0.0003000000
 OPT| RMS gradient is converged                                               NO
 OPT| **************************************************************************
 OPT| Estimated peak process memory after this step [MiB]                   1993

 --------------------------
 OPTIMIZATION STEP:    114
 --------------------------

 Number of electrons:                                                        416
 Number of occupied orbitals:                                                208
 Number of molecular orbitals:                                               208

 Number of orbital functions:                                                318
 Number of independent orbital functions:                                    318

 Extrapolation method: ASPC


 SCF WAVEFUNCTION OPTIMIZATION

  ----------------------------------- OT ---------------------------------------
  Minimizer      : DIIS                : direct inversion
                                         in the iterative subspace
                                         using   7 DIIS vectors
                                         safer DIIS on
  Preconditioner : FULL_SINGLE_INVERSE : inversion of 
                                         H + eS - 2*(Sc)(c^T*H*c+const)(Sc)^T
  Precond_solver : DEFAULT
  stepsize       :    0.08000000                  energy_gap     :    0.08000000
  eps_taylor     :   0.10000E-15                  max_taylor     :             4
  ----------------------------------- OT ---------------------------------------

  Step     Update method      Time    Convergence         Total energy    Change
  ------------------------------------------------------------------------------
     1 OT DIIS     0.80E-01    6.5     0.00146341      -920.7480881193 -9.21E+02
     2 OT DIIS     0.80E-01    7.8     0.00093796      -920.7571860272 -9.10E-03
     3 OT DIIS     0.80E-01    7.9     0.00037593      -920.7631381262 -5.95E-03
     4 OT DIIS     0.80E-01    7.9     0.00009869      -920.7639887021 -8.51E-04
     5 OT DIIS     0.80E-01    7.8     0.00003756      -920.7640396915 -5.10E-05
     6 OT DIIS     0.80E-01    7.9     0.00001804      -920.7640475305 -7.84E-06
     7 OT DIIS     0.80E-01    7.9     0.00000770      -920.7640494639 -1.93E-06

  *** SCF run converged in     7 steps ***


  Electronic density on regular grids:       -415.9999926139        0.0000073861
  Core density on regular grids:              415.9999999754       -0.0000000246
  Total charge density on r-space grids:        0.0000073615
  Total charge density g-space grids:           0.0000073615

  Overlap energy of the core charge distribution:               0.00000007507940
  Self energy of the core charge distribution:              -2388.37244906618980
  Core Hamiltonian energy:                                    696.97529655167216
  Hartree energy:                                             990.03231272414746
  Exchange-correlation energy:                               -219.39920974860226

  Total energy:                                              -920.76404946389312

 ENERGY| Total FORCE_EVAL ( QS ) energy [hartree]           -920.764049840190637

 Number of electrons:                                                        416
 Number of occupied orbitals:                                                208
 Number of molecular orbitals:                                               208

 Number of orbital functions:                                                318
 Number of independent orbital functions:                                    318

 Extrapolation method: ASPC


 SCF WAVEFUNCTION OPTIMIZATION

  ----------------------------------- OT ---------------------------------------
  Minimizer      : DIIS                : direct inversion
                                         in the iterative subspace
                                         using   7 DIIS vectors
                                         safer DIIS on
  Preconditioner : FULL_SINGLE_INVERSE : inversion of 
                                         H + eS - 2*(Sc)(c^T*H*c+const)(Sc)^T
  Precond_solver : DEFAULT
  stepsize       :    0.08000000                  energy_gap     :    0.08000000
  eps_taylor     :   0.10000E-15                  max_taylor     :             4
  ----------------------------------- OT ---------------------------------------

  Step     Update method      Time    Convergence         Total energy    Change
  ------------------------------------------------------------------------------
     1 OT DIIS     0.80E-01    6.5     0.00445170      -920.6234892681 -9.21E+02
     2 OT DIIS     0.80E-01    8.0     0.00283918      -920.7071060794 -8.36E-02
     3 OT DIIS     0.80E-01    7.8     0.00123997      -920.7595562808 -5.25E-02
     4 OT DIIS     0.80E-01    7.8     0.00027637      -920.7680387004 -8.48E-03
     5 OT DIIS     0.80E-01    7.9     0.00012753      -920.7684306977 -3.92E-04
     6 OT DIIS     0.80E-01    7.9     0.00006752      -920.7685102092 -7.95E-05
     7 OT DIIS     0.80E-01    7.9     0.00002767      -920.7685383997 -2.82E-05
     8 OT DIIS     0.80E-01    7.9     0.00001033      -920.7685435235 -5.12E-06
     9 OT DIIS     0.80E-01    7.9     0.00000470      -920.7685441347 -6.11E-07

  *** SCF run converged in     9 steps ***


  Electronic density on regular grids:       -415.9999923154        0.0000076846
  Core density on regular grids:              415.9999999753       -0.0000000247
  Total charge density on r-space grids:        0.0000076599
  Total charge density g-space grids:           0.0000076599

  Overlap energy of the core charge distribution:               0.00000007852881
  Self energy of the core charge distribution:              -2388.37244906618980
  Core Hamiltonian energy:                                    696.96032242976241
  Hartree energy:                                             990.04652100363080
  Exchange-correlation energy:                               -219.40293858038876

  Total energy:                                              -920.76854413465628

 ENERGY| Total FORCE_EVAL ( QS ) energy [hartree]           -920.768544260557860

 OPT| **************************************************************************
 OPT| Step number                                                            114
 OPT| Optimization method                                                  LBFGS
 OPT| Total energy [hartree]                                     -920.7685442606
 OPT| Effective energy change [hartree]                            -0.0000522442
 OPT| Decrease in energy                                                     YES
 OPT| Used time [s]                                                      144.905
 OPT|
 OPT| Maximum step size                                             0.0401785586
 OPT| Convergence limit for maximum step size                       0.0030000000
 OPT| Maximum step size is converged                                          NO
 OPT|
 OPT| RMS step size                                                 0.0037968254
 OPT| Convergence limit for RMS step size                           0.0015000000
 OPT| RMS step size is converged                                              NO
 OPT|
 OPT| Maximum gradient                                              0.0050436608
 OPT| Convergence limit for maximum gradient                        0.0010000000
 OPT| Maximum gradient is converged                                           NO
 OPT|
 OPT| RMS gradient                                                  0.0006395294
 OPT| Convergence limit for RMS gradient                            0.0003000000
 OPT| RMS gradient is converged                                               NO
 OPT| **************************************************************************
 OPT| Estimated peak process memory after this step [MiB]                   1993

 --------------------------
 OPTIMIZATION STEP:    115
 --------------------------

 Number of electrons:                                                        416
 Number of occupied orbitals:                                                208
 Number of molecular orbitals:                                               208

 Number of orbital functions:                                                318
 Number of independent orbital functions:                                    318

 Extrapolation method: ASPC


 SCF WAVEFUNCTION OPTIMIZATION

  ----------------------------------- OT ---------------------------------------
  Minimizer      : DIIS                : direct inversion
                                         in the iterative subspace
                                         using   7 DIIS vectors
                                         safer DIIS on
  Preconditioner : FULL_SINGLE_INVERSE : inversion of 
                                         H + eS - 2*(Sc)(c^T*H*c+const)(Sc)^T
  Precond_solver : DEFAULT
  stepsize       :    0.08000000                  energy_gap     :    0.08000000
  eps_taylor     :   0.10000E-15                  max_taylor     :             4
  ----------------------------------- OT ---------------------------------------

  Step     Update method      Time    Convergence         Total energy    Change
  ------------------------------------------------------------------------------
     1 OT DIIS     0.80E-01    6.5     0.00583746      -920.5318383765 -9.21E+02
     2 OT DIIS     0.80E-01    7.8     0.00362435      -920.6718800444 -1.40E-01
     3 OT DIIS     0.80E-01    7.8     0.00183811      -920.7483324914 -7.65E-02
     4 OT DIIS     0.80E-01    7.9     0.00040802      -920.7667877608 -1.85E-02
     5 OT DIIS     0.80E-01    7.9     0.00019082      -920.7676156176 -8.28E-04
     6 OT DIIS     0.80E-01    7.9     0.00010056      -920.7677905320 -1.75E-04
     7 OT DIIS     0.80E-01    7.9     0.00004096      -920.7678502351 -5.97E-05
     8 OT DIIS     0.80E-01    7.8     0.00001534      -920.7678601208 -9.89E-06
     9 OT DIIS     0.80E-01    7.8     0.00000626      -920.7678614497 -1.33E-06

  *** SCF run converged in     9 steps ***


  Electronic density on regular grids:       -415.9999923860        0.0000076140
  Core density on regular grids:              415.9999999753       -0.0000000247
  Total charge density on r-space grids:        0.0000075893
  Total charge density g-space grids:           0.0000075893

  Overlap energy of the core charge distribution:               0.00000007808631
  Self energy of the core charge distribution:              -2388.37244906618980
  Core Hamiltonian energy:                                    696.98508540080968
  Hartree energy:                                             990.02766867153207
  Exchange-correlation energy:                               -219.40816653390087

  Total energy:                                              -920.76786144966252

 ENERGY| Total FORCE_EVAL ( QS ) energy [hartree]           -920.767861652833517

 Number of electrons:                                                        416
 Number of occupied orbitals:                                                208
 Number of molecular orbitals:                                               208

 Number of orbital functions:                                                318
 Number of independent orbital functions:                                    318

 Extrapolation method: ASPC


 SCF WAVEFUNCTION OPTIMIZATION

  ----------------------------------- OT ---------------------------------------
  Minimizer      : DIIS                : direct inversion
                                         in the iterative subspace
                                         using   7 DIIS vectors
                                         safer DIIS on
  Preconditioner : FULL_SINGLE_INVERSE : inversion of 
                                         H + eS - 2*(Sc)(c^T*H*c+const)(Sc)^T
  Precond_solver : DEFAULT
  stepsize       :    0.08000000                  energy_gap     :    0.08000000
  eps_taylor     :   0.10000E-15                  max_taylor     :             4
  ----------------------------------- OT ---------------------------------------

  Step     Update method      Time    Convergence         Total energy    Change
  ------------------------------------------------------------------------------
     1 OT DIIS     0.80E-01    6.5     0.00500427      -920.5896473178 -9.21E+02
     2 OT DIIS     0.80E-01    7.8     0.00315366      -920.6937366960 -1.04E-01
     3 OT DIIS     0.80E-01    7.9     0.00152869      -920.7543943302 -6.07E-02
     4 OT DIIS     0.80E-01    7.8     0.00032246      -920.7679404611 -1.35E-02
     5 OT DIIS     0.80E-01    7.8     0.00014784      -920.7684716891 -5.31E-04
     6 OT DIIS     0.80E-01    7.8     0.00007734      -920.7685834938 -1.12E-04
     7 OT DIIS     0.80E-01    7.9     0.00003204      -920.7686200568 -3.66E-05
     8 OT DIIS     0.80E-01    7.8     0.00001173      -920.7686268319 -6.78E-06
     9 OT DIIS     0.80E-01    7.9     0.00000526      -920.7686276161 -7.84E-07

  *** SCF run converged in     9 steps ***


  Electronic density on regular grids:       -415.9999922792        0.0000077208
  Core density on regular grids:              415.9999999753       -0.0000000247
  Total charge density on r-space grids:        0.0000076962
  Total charge density g-space grids:           0.0000076962

  Overlap energy of the core charge distribution:               0.00000007866826
  Self energy of the core charge distribution:              -2388.37244906618980
  Core Hamiltonian energy:                                    696.96856920421521
  Hartree energy:                                             990.04044356319366
  Exchange-correlation energy:                               -219.40519139600926

  Total energy:                                              -920.76862761612199

 ENERGY| Total FORCE_EVAL ( QS ) energy [hartree]           -920.768627772168088

 OPT| **************************************************************************
 OPT| Step number                                                            115
 OPT| Optimization method                                                  LBFGS
 OPT| Total energy [hartree]                                     -920.7686277722
 OPT| Effective energy change [hartree]                            -0.0000835116
 OPT| Decrease in energy                                                     YES
 OPT| Used time [s]                                                      160.378
 OPT|
 OPT| Maximum step size                                             0.0541986356
 OPT| Convergence limit for maximum step size                       0.0030000000
 OPT| Maximum step size is converged                                          NO
 OPT|
 OPT| RMS step size                                                 0.0050407986
 OPT| Convergence limit for RMS step size                           0.0015000000
 OPT| RMS step size is converged                                              NO
 OPT|
 OPT| Maximum gradient                                              0.0035076170
 OPT| Convergence limit for maximum gradient                        0.0010000000
 OPT| Maximum gradient is converged                                           NO
 OPT|
 OPT| RMS gradient                                                  0.0007509328
 OPT| Convergence limit for RMS gradient                            0.0003000000
 OPT| RMS gradient is converged                                               NO
 OPT| **************************************************************************
 OPT| Estimated peak process memory after this step [MiB]                   1993

 --------------------------
 OPTIMIZATION STEP:    116
 --------------------------

 Number of electrons:                                                        416
 Number of occupied orbitals:                                                208
 Number of molecular orbitals:                                               208

 Number of orbital functions:                                                318
 Number of independent orbital functions:                                    318

 Extrapolation method: ASPC


 SCF WAVEFUNCTION OPTIMIZATION

  ----------------------------------- OT ---------------------------------------
  Minimizer      : DIIS                : direct inversion
                                         in the iterative subspace
                                         using   7 DIIS vectors
                                         safer DIIS on
  Preconditioner : FULL_SINGLE_INVERSE : inversion of 
                                         H + eS - 2*(Sc)(c^T*H*c+const)(Sc)^T
  Precond_solver : DEFAULT
  stepsize       :    0.08000000                  energy_gap     :    0.08000000
  eps_taylor     :   0.10000E-15                  max_taylor     :             4
  ----------------------------------- OT ---------------------------------------

  Step     Update method      Time    Convergence         Total energy    Change
  ------------------------------------------------------------------------------
     1 OT DIIS     0.80E-01    6.5     0.00324219      -920.6921167516 -9.21E+02
     2 OT DIIS     0.80E-01    7.8     0.00205273      -920.7362912884 -4.42E-02
     3 OT DIIS     0.80E-01    7.9     0.00090346      -920.7637017410 -2.74E-02
     4 OT DIIS     0.80E-01    8.1     0.00020509      -920.7684590305 -4.76E-03
     5 OT DIIS     0.80E-01    7.8     0.00009327      -920.7686878707 -2.29E-04
     6 OT DIIS     0.80E-01    7.8     0.00004839      -920.7687297703 -4.19E-05
     7 OT DIIS     0.80E-01    7.8     0.00001832      -920.7687444800 -1.47E-05
     8 OT DIIS     0.80E-01    7.9     0.00000743      -920.7687466222 -2.14E-06

  *** SCF run converged in     8 steps ***


  Electronic density on regular grids:       -415.9999922853        0.0000077147
  Core density on regular grids:              415.9999999753       -0.0000000247
  Total charge density on r-space grids:        0.0000076900
  Total charge density g-space grids:           0.0000076900

  Overlap energy of the core charge distribution:               0.00000007892083
  Self energy of the core charge distribution:              -2388.37244906618980
  Core Hamiltonian energy:                                    696.97253507809069
  Hartree energy:                                             990.03765562916112
  Exchange-correlation energy:                               -219.40648834217353

  Total energy:                                              -920.76874662219052

 ENERGY| Total FORCE_EVAL ( QS ) energy [hartree]           -920.768746939119978

 OPT| **************************************************************************
 OPT| Step number                                                            116
 OPT| Optimization method                                                  LBFGS
 OPT| Total energy [hartree]                                     -920.7687469391
 OPT| Effective energy change [hartree]                            -0.0001191670
 OPT| Decrease in energy                                                     YES
 OPT| Used time [s]                                                       72.448
 OPT|
 OPT| Maximum step size                                             0.0558382410
 OPT| Convergence limit for maximum step size                       0.0030000000
 OPT| Maximum step size is converged                                          NO
 OPT|
 OPT| RMS step size                                                 0.0051225104
 OPT| Convergence limit for RMS step size                           0.0015000000
 OPT| RMS step size is converged                                              NO
 OPT|
 OPT| Maximum gradient                                              0.0040209399
 OPT| Convergence limit for maximum gradient                        0.0010000000
 OPT| Maximum gradient is converged                                           NO
 OPT|
 OPT| RMS gradient                                                  0.0007857806
 OPT| Convergence limit for RMS gradient                            0.0003000000
 OPT| RMS gradient is converged                                               NO
 OPT| **************************************************************************
 OPT| Estimated peak process memory after this step [MiB]                   1993

 --------------------------
 OPTIMIZATION STEP:    117
 --------------------------

 Number of electrons:                                                        416
 Number of occupied orbitals:                                                208
 Number of molecular orbitals:                                               208

 Number of orbital functions:                                                318
 Number of independent orbital functions:                                    318

 Extrapolation method: ASPC


 SCF WAVEFUNCTION OPTIMIZATION

  ----------------------------------- OT ---------------------------------------
  Minimizer      : DIIS                : direct inversion
                                         in the iterative subspace
                                         using   7 DIIS vectors
                                         safer DIIS on
  Preconditioner : FULL_SINGLE_INVERSE : inversion of 
                                         H + eS - 2*(Sc)(c^T*H*c+const)(Sc)^T
  Precond_solver : DEFAULT
  stepsize       :    0.08000000                  energy_gap     :    0.08000000
  eps_taylor     :   0.10000E-15                  max_taylor     :             4
  ----------------------------------- OT ---------------------------------------

  Step     Update method      Time    Convergence         Total energy    Change
  ------------------------------------------------------------------------------
     1 OT DIIS     0.80E-01    6.5     0.00167273      -920.7476817536 -9.21E+02
     2 OT DIIS     0.80E-01    7.8     0.00107973      -920.7596639996 -1.20E-02
     3 OT DIIS     0.80E-01    7.8     0.00038583      -920.7679424093 -8.28E-03
     4 OT DIIS     0.80E-01    7.8     0.00009730      -920.7687888896 -8.46E-04
     5 OT DIIS     0.80E-01    7.8     0.00004205      -920.7688412894 -5.24E-05
     6 OT DIIS     0.80E-01    7.8     0.00002111      -920.7688505838 -9.29E-06
     7 OT DIIS     0.80E-01    7.8     0.00000795      -920.7688534219 -2.84E-06

  *** SCF run converged in     7 steps ***


  Electronic density on regular grids:       -415.9999923182        0.0000076818
  Core density on regular grids:              415.9999999752       -0.0000000248
  Total charge density on r-space grids:        0.0000076570
  Total charge density g-space grids:           0.0000076570

  Overlap energy of the core charge distribution:               0.00000007932787
  Self energy of the core charge distribution:              -2388.37244906618980
  Core Hamiltonian energy:                                    696.97073594515507
  Hartree energy:                                             990.03911479834665
  Exchange-correlation energy:                               -219.40625517851575

  Total energy:                                              -920.76885342187597

 ENERGY| Total FORCE_EVAL ( QS ) energy [hartree]           -920.768853829339605

 OPT| **************************************************************************
 OPT| Step number                                                            117
 OPT| Optimization method                                                  LBFGS
 OPT| Total energy [hartree]                                     -920.7688538293
 OPT| Effective energy change [hartree]                            -0.0001068902
 OPT| Decrease in energy                                                     YES
 OPT| Used time [s]                                                       64.332
 OPT|
 OPT| Maximum step size                                             0.0181476695
 OPT| Convergence limit for maximum step size                       0.0030000000
 OPT| Maximum step size is converged                                          NO
 OPT|
 OPT| RMS step size                                                 0.0023646001
 OPT| Convergence limit for RMS step size                           0.0015000000
 OPT| RMS step size is converged                                              NO
 OPT|
 OPT| Maximum gradient                                              0.0059675349
 OPT| Convergence limit for maximum gradient                        0.0010000000
 OPT| Maximum gradient is converged                                           NO
 OPT|
 OPT| RMS gradient                                                  0.0006431613
 OPT| Convergence limit for RMS gradient                            0.0003000000
 OPT| RMS gradient is converged                                               NO
 OPT| **************************************************************************
 OPT| Estimated peak process memory after this step [MiB]                   1993

 --------------------------
 OPTIMIZATION STEP:    118
 --------------------------

 Number of electrons:                                                        416
 Number of occupied orbitals:                                                208
 Number of molecular orbitals:                                               208

 Number of orbital functions:                                                318
 Number of independent orbital functions:                                    318

 Extrapolation method: ASPC


 SCF WAVEFUNCTION OPTIMIZATION

  ----------------------------------- OT ---------------------------------------
  Minimizer      : DIIS                : direct inversion
                                         in the iterative subspace
                                         using   7 DIIS vectors
                                         safer DIIS on
  Preconditioner : FULL_SINGLE_INVERSE : inversion of 
                                         H + eS - 2*(Sc)(c^T*H*c+const)(Sc)^T
  Precond_solver : DEFAULT
  stepsize       :    0.08000000                  energy_gap     :    0.08000000
  eps_taylor     :   0.10000E-15                  max_taylor     :             4
  ----------------------------------- OT ---------------------------------------

  Step     Update method      Time    Convergence         Total energy    Change
  ------------------------------------------------------------------------------
     1 OT DIIS     0.80E-01    6.5     0.00064221      -920.7657962207 -9.21E+02
     2 OT DIIS     0.80E-01    7.8     0.00041465      -920.7675689448 -1.77E-03
     3 OT DIIS     0.80E-01    7.8     0.00013094      -920.7688216243 -1.25E-03
     4 OT DIIS     0.80E-01    7.9     0.00003876      -920.7689191411 -9.75E-05
     5 OT DIIS     0.80E-01    7.8     0.00001550      -920.7689271072 -7.97E-06
     6 OT DIIS     0.80E-01    7.8     0.00000702      -920.7689285024 -1.40E-06

  *** SCF run converged in     6 steps ***


  Electronic density on regular grids:       -415.9999923258        0.0000076742
  Core density on regular grids:              415.9999999753       -0.0000000247
  Total charge density on r-space grids:        0.0000076494
  Total charge density g-space grids:           0.0000076494

  Overlap energy of the core charge distribution:               0.00000007850337
  Self energy of the core charge distribution:              -2388.37244906618980
  Core Hamiltonian energy:                                    696.96602152239166
  Hartree energy:                                             990.04183677498713
  Exchange-correlation energy:                               -219.40433781213170

  Total energy:                                              -920.76892850243917

 ENERGY| Total FORCE_EVAL ( QS ) energy [hartree]           -920.768928815218942

 OPT| **************************************************************************
 OPT| Step number                                                            118
 OPT| Optimization method                                                  LBFGS
 OPT| Total energy [hartree]                                     -920.7689288152
 OPT| Effective energy change [hartree]                            -0.0000749859
 OPT| Decrease in energy                                                     YES
 OPT| Used time [s]                                                       56.466
 OPT|
 OPT| Maximum step size                                             0.0075606155
 OPT| Convergence limit for maximum step size                       0.0030000000
 OPT| Maximum step size is converged                                          NO
 OPT|
 OPT| RMS step size                                                 0.0010965035
 OPT| Convergence limit for RMS step size                           0.0015000000
 OPT| RMS step size is converged                                             YES
 OPT|
 OPT| Maximum gradient                                              0.0019219405
 OPT| Convergence limit for maximum gradient                        0.0010000000
 OPT| Maximum gradient is converged                                           NO
 OPT|
 OPT| RMS gradient                                                  0.0003429999
 OPT| Convergence limit for RMS gradient                            0.0003000000
 OPT| RMS gradient is converged                                               NO
 OPT| **************************************************************************
 OPT| Estimated peak process memory after this step [MiB]                   1993

 --------------------------
 OPTIMIZATION STEP:    119
 --------------------------

 Number of electrons:                                                        416
 Number of occupied orbitals:                                                208
 Number of molecular orbitals:                                               208

 Number of orbital functions:                                                318
 Number of independent orbital functions:                                    318

 Extrapolation method: ASPC


 SCF WAVEFUNCTION OPTIMIZATION

  ----------------------------------- OT ---------------------------------------
  Minimizer      : DIIS                : direct inversion
                                         in the iterative subspace
                                         using   7 DIIS vectors
                                         safer DIIS on
  Preconditioner : FULL_SINGLE_INVERSE : inversion of 
                                         H + eS - 2*(Sc)(c^T*H*c+const)(Sc)^T
  Precond_solver : DEFAULT
  stepsize       :    0.08000000                  energy_gap     :    0.08000000
  eps_taylor     :   0.10000E-15                  max_taylor     :             4
  ----------------------------------- OT ---------------------------------------

  Step     Update method      Time    Convergence         Total energy    Change
  ------------------------------------------------------------------------------
     1 OT DIIS     0.80E-01    6.5     0.00014193      -920.7688376766 -9.21E+02
     2 OT DIIS     0.80E-01    7.8     0.00008514      -920.7689207654 -8.31E-05
     3 OT DIIS     0.80E-01    7.9     0.00003358      -920.7689671503 -4.64E-05
     4 OT DIIS     0.80E-01    7.8     0.00001123      -920.7689743344 -7.18E-06
     5 OT DIIS     0.80E-01    7.8     0.00000401      -920.7689750634 -7.29E-07

  *** SCF run converged in     5 steps ***


  Electronic density on regular grids:       -415.9999923195        0.0000076805
  Core density on regular grids:              415.9999999752       -0.0000000248
  Total charge density on r-space grids:        0.0000076557
  Total charge density g-space grids:           0.0000076557

  Overlap energy of the core charge distribution:               0.00000007827540
  Self energy of the core charge distribution:              -2388.37244906618980
  Core Hamiltonian energy:                                    696.96653008059832
  Hartree energy:                                             990.04118391414659
  Exchange-correlation energy:                               -219.40424007026058

  Total energy:                                              -920.76897506343039

 ENERGY| Total FORCE_EVAL ( QS ) energy [hartree]           -920.768975142201498

 OPT| **************************************************************************
 OPT| Step number                                                            119
 OPT| Optimization method                                                  LBFGS
 OPT| Total energy [hartree]                                     -920.7689751422
 OPT| Effective energy change [hartree]                            -0.0000463270
 OPT| Decrease in energy                                                     YES
 OPT| Used time [s]                                                       48.687
 OPT|
 OPT| Maximum step size                                             0.0173526407
 OPT| Convergence limit for maximum step size                       0.0030000000
 OPT| Maximum step size is converged                                          NO
 OPT|
 OPT| RMS step size                                                 0.0016260322
 OPT| Convergence limit for RMS step size                           0.0015000000
 OPT| RMS step size is converged                                              NO
 OPT|
 OPT| Maximum gradient                                              0.0018426731
 OPT| Convergence limit for maximum gradient                        0.0010000000
 OPT| Maximum gradient is converged                                           NO
 OPT|
 OPT| RMS gradient                                                  0.0002925705
 OPT| Convergence limit for RMS gradient                            0.0003000000
 OPT| RMS gradient is converged                                              YES
 OPT| **************************************************************************
 OPT| Estimated peak process memory after this step [MiB]                   1993

 --------------------------
 OPTIMIZATION STEP:    120
 --------------------------

 Number of electrons:                                                        416
 Number of occupied orbitals:                                                208
 Number of molecular orbitals:                                               208

 Number of orbital functions:                                                318
 Number of independent orbital functions:                                    318

 Extrapolation method: ASPC


 SCF WAVEFUNCTION OPTIMIZATION

  ----------------------------------- OT ---------------------------------------
  Minimizer      : DIIS                : direct inversion
                                         in the iterative subspace
                                         using   7 DIIS vectors
                                         safer DIIS on
  Preconditioner : FULL_SINGLE_INVERSE : inversion of 
                                         H + eS - 2*(Sc)(c^T*H*c+const)(Sc)^T
  Precond_solver : DEFAULT
  stepsize       :    0.08000000                  energy_gap     :    0.08000000
  eps_taylor     :   0.10000E-15                  max_taylor     :             4
  ----------------------------------- OT ---------------------------------------

  Step     Update method      Time    Convergence         Total energy    Change
  ------------------------------------------------------------------------------
     1 OT DIIS     0.80E-01    6.5     0.00009187      -920.7689556177 -9.21E+02
     2 OT DIIS     0.80E-01    7.8     0.00005578      -920.7689896872 -3.41E-05
     3 OT DIIS     0.80E-01    7.9     0.00002972      -920.7690072963 -1.76E-05
     4 OT DIIS     0.80E-01    7.8     0.00000901      -920.7690131677 -5.87E-06

  *** SCF run converged in     4 steps ***


  Electronic density on regular grids:       -415.9999923258        0.0000076742
  Core density on regular grids:              415.9999999752       -0.0000000248
  Total charge density on r-space grids:        0.0000076494
  Total charge density g-space grids:           0.0000076494

  Overlap energy of the core charge distribution:               0.00000007835673
  Self energy of the core charge distribution:              -2388.37244906618980
  Core Hamiltonian energy:                                    696.96566552968227
  Hartree energy:                                             990.04200702080038
  Exchange-correlation energy:                               -219.40423673030338

  Total energy:                                              -920.76901316765407

 ENERGY| Total FORCE_EVAL ( QS ) energy [hartree]           -920.769013681773686

 OPT| **************************************************************************
 OPT| Step number                                                            120
 OPT| Optimization method                                                  LBFGS
 OPT| Total energy [hartree]                                     -920.7690136818
 OPT| Effective energy change [hartree]                            -0.0000385396
 OPT| Decrease in energy                                                     YES
 OPT| Used time [s]                                                       40.923
 OPT|
 OPT| Maximum step size                                             0.0065490831
 OPT| Convergence limit for maximum step size                       0.0030000000
 OPT| Maximum step size is converged                                          NO
 OPT|
 OPT| RMS step size                                                 0.0014359176
 OPT| Convergence limit for RMS step size                           0.0015000000
 OPT| RMS step size is converged                                             YES
 OPT|
 OPT| Maximum gradient                                              0.0019949399
 OPT| Convergence limit for maximum gradient                        0.0010000000
 OPT| Maximum gradient is converged                                           NO
 OPT|
 OPT| RMS gradient                                                  0.0002897687
 OPT| Convergence limit for RMS gradient                            0.0003000000
 OPT| RMS gradient is converged                                              YES
 OPT| **************************************************************************
 OPT| Estimated peak process memory after this step [MiB]                   1993

 --------------------------
 OPTIMIZATION STEP:    121
 --------------------------

 Number of electrons:                                                        416
 Number of occupied orbitals:                                                208
 Number of molecular orbitals:                                               208

 Number of orbital functions:                                                318
 Number of independent orbital functions:                                    318

 Extrapolation method: ASPC


 SCF WAVEFUNCTION OPTIMIZATION

  ----------------------------------- OT ---------------------------------------
  Minimizer      : DIIS                : direct inversion
                                         in the iterative subspace
                                         using   7 DIIS vectors
                                         safer DIIS on
  Preconditioner : FULL_SINGLE_INVERSE : inversion of 
                                         H + eS - 2*(Sc)(c^T*H*c+const)(Sc)^T
  Precond_solver : DEFAULT
  stepsize       :    0.08000000                  energy_gap     :    0.08000000
  eps_taylor     :   0.10000E-15                  max_taylor     :             4
  ----------------------------------- OT ---------------------------------------

  Step     Update method      Time    Convergence         Total energy    Change
  ------------------------------------------------------------------------------
     1 OT DIIS     0.80E-01    6.5     0.00013619      -920.7689112604 -9.21E+02
     2 OT DIIS     0.80E-01    7.8     0.00008485      -920.7689882588 -7.70E-05
     3 OT DIIS     0.80E-01    7.8     0.00003973      -920.7690331539 -4.49E-05
     4 OT DIIS     0.80E-01    7.8     0.00001093      -920.7690430941 -9.94E-06
     5 OT DIIS     0.80E-01    7.9     0.00000426      -920.7690437891 -6.95E-07

  *** SCF run converged in     5 steps ***


  Electronic density on regular grids:       -415.9999923199        0.0000076801
  Core density on regular grids:              415.9999999751       -0.0000000249
  Total charge density on r-space grids:        0.0000076552
  Total charge density g-space grids:           0.0000076552

  Overlap energy of the core charge distribution:               0.00000007807938
  Self energy of the core charge distribution:              -2388.37244906618980
  Core Hamiltonian energy:                                    696.96684680959606
  Hartree energy:                                             990.04087188067570
  Exchange-correlation energy:                               -219.40431349126763

  Total energy:                                              -920.76904378910649

 ENERGY| Total FORCE_EVAL ( QS ) energy [hartree]           -920.769043883966106

 OPT| **************************************************************************
 OPT| Step number                                                            121
 OPT| Optimization method                                                  LBFGS
 OPT| Total energy [hartree]                                     -920.7690438840
 OPT| Effective energy change [hartree]                            -0.0000302022
 OPT| Decrease in energy                                                     YES
 OPT| Used time [s]                                                       48.682
 OPT|
 OPT| Maximum step size                                             0.0236168002
 OPT| Convergence limit for maximum step size                       0.0030000000
 OPT| Maximum step size is converged                                          NO
 OPT|
 OPT| RMS step size                                                 0.0022577828
 OPT| Convergence limit for RMS step size                           0.0015000000
 OPT| RMS step size is converged                                              NO
 OPT|
 OPT| Maximum gradient                                              0.0023802645
 OPT| Convergence limit for maximum gradient                        0.0010000000
 OPT| Maximum gradient is converged                                           NO
 OPT|
 OPT| RMS gradient                                                  0.0003379059
 OPT| Convergence limit for RMS gradient                            0.0003000000
 OPT| RMS gradient is converged                                               NO
 OPT| **************************************************************************
 OPT| Estimated peak process memory after this step [MiB]                   1993

 --------------------------
 OPTIMIZATION STEP:    122
 --------------------------

 Number of electrons:                                                        416
 Number of occupied orbitals:                                                208
 Number of molecular orbitals:                                               208

 Number of orbital functions:                                                318
 Number of independent orbital functions:                                    318

 Extrapolation method: ASPC


 SCF WAVEFUNCTION OPTIMIZATION

  ----------------------------------- OT ---------------------------------------
  Minimizer      : DIIS                : direct inversion
                                         in the iterative subspace
                                         using   7 DIIS vectors
                                         safer DIIS on
  Preconditioner : FULL_SINGLE_INVERSE : inversion of 
                                         H + eS - 2*(Sc)(c^T*H*c+const)(Sc)^T
  Precond_solver : DEFAULT
  stepsize       :    0.08000000                  energy_gap     :    0.08000000
  eps_taylor     :   0.10000E-15                  max_taylor     :             4
  ----------------------------------- OT ---------------------------------------

  Step     Update method      Time    Convergence         Total energy    Change
  ------------------------------------------------------------------------------
     1 OT DIIS     0.80E-01    6.5     0.00013656      -920.7689414844 -9.21E+02
     2 OT DIIS     0.80E-01    7.8     0.00008429      -920.7690188165 -7.73E-05
     3 OT DIIS     0.80E-01    7.8     0.00003763      -920.7690635517 -4.47E-05
     4 OT DIIS     0.80E-01    7.9     0.00001098      -920.7690724676 -8.92E-06
     5 OT DIIS     0.80E-01    7.9     0.00000427      -920.7690731581 -6.91E-07

  *** SCF run converged in     5 steps ***


  Electronic density on regular grids:       -415.9999923188        0.0000076812
  Core density on regular grids:              415.9999999752       -0.0000000248
  Total charge density on r-space grids:        0.0000076564
  Total charge density g-space grids:           0.0000076564

  Overlap energy of the core charge distribution:               0.00000007869736
  Self energy of the core charge distribution:              -2388.37244906618980
  Core Hamiltonian energy:                                    696.96960309388032
  Hartree energy:                                             990.03938874106268
  Exchange-correlation energy:                               -219.40561600555651

  Total energy:                                              -920.76907315810604

 ENERGY| Total FORCE_EVAL ( QS ) energy [hartree]           -920.769073251389386

 OPT| **************************************************************************
 OPT| Step number                                                            122
 OPT| Optimization method                                                  LBFGS
 OPT| Total energy [hartree]                                     -920.7690732514
 OPT| Effective energy change [hartree]                            -0.0000293674
 OPT| Decrease in energy                                                     YES
 OPT| Used time [s]                                                       48.764
 OPT|
 OPT| Maximum step size                                             0.0067947516
 OPT| Convergence limit for maximum step size                       0.0030000000
 OPT| Maximum step size is converged                                          NO
 OPT|
 OPT| RMS step size                                                 0.0009238580
 OPT| Convergence limit for RMS step size                           0.0015000000
 OPT| RMS step size is converged                                             YES
 OPT|
 OPT| Maximum gradient                                              0.0017066607
 OPT| Convergence limit for maximum gradient                        0.0010000000
 OPT| Maximum gradient is converged                                           NO
 OPT|
 OPT| RMS gradient                                                  0.0002134679
 OPT| Convergence limit for RMS gradient                            0.0003000000
 OPT| RMS gradient is converged                                              YES
 OPT| **************************************************************************
 OPT| Estimated peak process memory after this step [MiB]                   1993

 --------------------------
 OPTIMIZATION STEP:    123
 --------------------------

 Number of electrons:                                                        416
 Number of occupied orbitals:                                                208
 Number of molecular orbitals:                                               208

 Number of orbital functions:                                                318
 Number of independent orbital functions:                                    318

 Extrapolation method: ASPC


 SCF WAVEFUNCTION OPTIMIZATION

  ----------------------------------- OT ---------------------------------------
  Minimizer      : DIIS                : direct inversion
                                         in the iterative subspace
                                         using   7 DIIS vectors
                                         safer DIIS on
  Preconditioner : FULL_SINGLE_INVERSE : inversion of 
                                         H + eS - 2*(Sc)(c^T*H*c+const)(Sc)^T
  Precond_solver : DEFAULT
  stepsize       :    0.08000000                  energy_gap     :    0.08000000
  eps_taylor     :   0.10000E-15                  max_taylor     :             4
  ----------------------------------- OT ---------------------------------------

  Step     Update method      Time    Convergence         Total energy    Change
  ------------------------------------------------------------------------------
     1 OT DIIS     0.80E-01    6.5     0.00008394      -920.7690442739 -9.21E+02
     2 OT DIIS     0.80E-01    7.8     0.00004911      -920.7690727015 -2.84E-05
     3 OT DIIS     0.80E-01    7.8     0.00002245      -920.7690868420 -1.41E-05
     4 OT DIIS     0.80E-01    7.8     0.00000746      -920.7690899167 -3.07E-06

  *** SCF run converged in     4 steps ***


  Electronic density on regular grids:       -415.9999923184        0.0000076816
  Core density on regular grids:              415.9999999751       -0.0000000249
  Total charge density on r-space grids:        0.0000076568
  Total charge density g-space grids:           0.0000076568

  Overlap energy of the core charge distribution:               0.00000007886420
  Self energy of the core charge distribution:              -2388.37244906618980
  Core Hamiltonian energy:                                    696.96970981786251
  Hartree energy:                                             990.03945386959799
  Exchange-correlation energy:                               -219.40580461682001

  Total energy:                                              -920.76908991668506

 ENERGY| Total FORCE_EVAL ( QS ) energy [hartree]           -920.769090240353648

 OPT| **************************************************************************
 OPT| Step number                                                            123
 OPT| Optimization method                                                  LBFGS
 OPT| Total energy [hartree]                                     -920.7690902404
 OPT| Effective energy change [hartree]                            -0.0000169890
 OPT| Decrease in energy                                                     YES
 OPT| Used time [s]                                                       40.881
 OPT|
 OPT| Maximum step size                                             0.0040662865
 OPT| Convergence limit for maximum step size                       0.0030000000
 OPT| Maximum step size is converged                                          NO
 OPT|
 OPT| RMS step size                                                 0.0006231109
 OPT| Convergence limit for RMS step size                           0.0015000000
 OPT| RMS step size is converged                                             YES
 OPT|
 OPT| Maximum gradient                                              0.0009943826
 OPT| Convergence limit for maximum gradient                        0.0010000000
 OPT| Maximum gradient is converged                                          YES
 OPT|
 OPT| RMS gradient                                                  0.0001603595
 OPT| Convergence limit for RMS gradient                            0.0003000000
 OPT| RMS gradient is converged                                              YES
 OPT| **************************************************************************
 OPT| Estimated peak process memory after this step [MiB]                   1993

 --------------------------
 OPTIMIZATION STEP:    124
 --------------------------

 Number of electrons:                                                        416
 Number of occupied orbitals:                                                208
 Number of molecular orbitals:                                               208

 Number of orbital functions:                                                318
 Number of independent orbital functions:                                    318

 Extrapolation method: ASPC


 SCF WAVEFUNCTION OPTIMIZATION

  ----------------------------------- OT ---------------------------------------
  Minimizer      : DIIS                : direct inversion
                                         in the iterative subspace
                                         using   7 DIIS vectors
                                         safer DIIS on
  Preconditioner : FULL_SINGLE_INVERSE : inversion of 
                                         H + eS - 2*(Sc)(c^T*H*c+const)(Sc)^T
  Precond_solver : DEFAULT
  stepsize       :    0.08000000                  energy_gap     :    0.08000000
  eps_taylor     :   0.10000E-15                  max_taylor     :             4
  ----------------------------------- OT ---------------------------------------

  Step     Update method      Time    Convergence         Total energy    Change
  ------------------------------------------------------------------------------
     1 OT DIIS     0.80E-01    6.5     0.00004048      -920.7691010413 -9.21E+02
     2 OT DIIS     0.80E-01    7.8     0.00002253      -920.7691075192 -6.48E-06
     3 OT DIIS     0.80E-01    7.8     0.00001006      -920.7691103932 -2.87E-06
     4 OT DIIS     0.80E-01    7.8     0.00000393      -920.7691110012 -6.08E-07

  *** SCF run converged in     4 steps ***


  Electronic density on regular grids:       -415.9999923237        0.0000076763
  Core density on regular grids:              415.9999999751       -0.0000000249
  Total charge density on r-space grids:        0.0000076514
  Total charge density g-space grids:           0.0000076514

  Overlap energy of the core charge distribution:               0.00000007872776
  Self energy of the core charge distribution:              -2388.37244906618980
  Core Hamiltonian energy:                                    696.97015763299135
  Hartree energy:                                             990.03886953343863
  Exchange-correlation energy:                               -219.40568918018164

  Total energy:                                              -920.76911100121390

 ENERGY| Total FORCE_EVAL ( QS ) energy [hartree]           -920.769111098898861

 OPT| **************************************************************************
 OPT| Step number                                                            124
 OPT| Optimization method                                                  LBFGS
 OPT| Total energy [hartree]                                     -920.7691110989
 OPT| Effective energy change [hartree]                            -0.0000208585
 OPT| Decrease in energy                                                     YES
 OPT| Used time [s]                                                       40.844
 OPT|
 OPT| Maximum step size                                             0.0123038321
 OPT| Convergence limit for maximum step size                       0.0030000000
 OPT| Maximum step size is converged                                          NO
 OPT|
 OPT| RMS step size                                                 0.0013655150
 OPT| Convergence limit for RMS step size                           0.0015000000
 OPT| RMS step size is converged                                             YES
 OPT|
 OPT| Maximum gradient                                              0.0004419450
 OPT| Convergence limit for maximum gradient                        0.0010000000
 OPT| Maximum gradient is converged                                          YES
 OPT|
 OPT| RMS gradient                                                  0.0001236061
 OPT| Convergence limit for RMS gradient                            0.0003000000
 OPT| RMS gradient is converged                                              YES
 OPT| **************************************************************************
 OPT| Estimated peak process memory after this step [MiB]                   1993

 --------------------------
 OPTIMIZATION STEP:    125
 --------------------------

 Number of electrons:                                                        416
 Number of occupied orbitals:                                                208
 Number of molecular orbitals:                                               208

 Number of orbital functions:                                                318
 Number of independent orbital functions:                                    318

 Extrapolation method: ASPC


 SCF WAVEFUNCTION OPTIMIZATION

  ----------------------------------- OT ---------------------------------------
  Minimizer      : DIIS                : direct inversion
                                         in the iterative subspace
                                         using   7 DIIS vectors
                                         safer DIIS on
  Preconditioner : FULL_SINGLE_INVERSE : inversion of 
                                         H + eS - 2*(Sc)(c^T*H*c+const)(Sc)^T
  Precond_solver : DEFAULT
  stepsize       :    0.08000000                  energy_gap     :    0.08000000
  eps_taylor     :   0.10000E-15                  max_taylor     :             4
  ----------------------------------- OT ---------------------------------------

  Step     Update method      Time    Convergence         Total energy    Change
  ------------------------------------------------------------------------------
     1 OT DIIS     0.80E-01    6.5     0.00003633      -920.7691162767 -9.21E+02
     2 OT DIIS     0.80E-01    7.8     0.00001856      -920.7691209844 -4.71E-06
     3 OT DIIS     0.80E-01    7.8     0.00001030      -920.7691224495 -1.47E-06
     4 OT DIIS     0.80E-01    7.8     0.00000349      -920.7691230391 -5.90E-07

  *** SCF run converged in     4 steps ***


  Electronic density on regular grids:       -415.9999923384        0.0000076616
  Core density on regular grids:              415.9999999751       -0.0000000249
  Total charge density on r-space grids:        0.0000076367
  Total charge density g-space grids:           0.0000076367

  Overlap energy of the core charge distribution:               0.00000007920866
  Self energy of the core charge distribution:              -2388.37244906618980
  Core Hamiltonian energy:                                    696.97218209676964
  Hartree energy:                                             990.03758108480054
  Exchange-correlation energy:                               -219.40643723369180

  Total energy:                                              -920.76912303910251

 ENERGY| Total FORCE_EVAL ( QS ) energy [hartree]           -920.769123111347199

 OPT| **************************************************************************
 OPT| Step number                                                            125
 OPT| Optimization method                                                  LBFGS
 OPT| Total energy [hartree]                                     -920.7691231113
 OPT| Effective energy change [hartree]                            -0.0000120124
 OPT| Decrease in energy                                                     YES
 OPT| Used time [s]                                                       40.802
 OPT|
 OPT| Maximum step size                                             0.0242757069
 OPT| Convergence limit for maximum step size                       0.0030000000
 OPT| Maximum step size is converged                                          NO
 OPT|
 OPT| RMS step size                                                 0.0022603698
 OPT| Convergence limit for RMS step size                           0.0015000000
 OPT| RMS step size is converged                                              NO
 OPT|
 OPT| Maximum gradient                                              0.0014968642
 OPT| Convergence limit for maximum gradient                        0.0010000000
 OPT| Maximum gradient is converged                                           NO
 OPT|
 OPT| RMS gradient                                                  0.0002779844
 OPT| Convergence limit for RMS gradient                            0.0003000000
 OPT| RMS gradient is converged                                              YES
 OPT| **************************************************************************
 OPT| Estimated peak process memory after this step [MiB]                   1993

 --------------------------
 OPTIMIZATION STEP:    126
 --------------------------

 Number of electrons:                                                        416
 Number of occupied orbitals:                                                208
 Number of molecular orbitals:                                               208

 Number of orbital functions:                                                318
 Number of independent orbital functions:                                    318

 Extrapolation method: ASPC


 SCF WAVEFUNCTION OPTIMIZATION

  ----------------------------------- OT ---------------------------------------
  Minimizer      : DIIS                : direct inversion
                                         in the iterative subspace
                                         using   7 DIIS vectors
                                         safer DIIS on
  Preconditioner : FULL_SINGLE_INVERSE : inversion of 
                                         H + eS - 2*(Sc)(c^T*H*c+const)(Sc)^T
  Precond_solver : DEFAULT
  stepsize       :    0.08000000                  energy_gap     :    0.08000000
  eps_taylor     :   0.10000E-15                  max_taylor     :             4
  ----------------------------------- OT ---------------------------------------

  Step     Update method      Time    Convergence         Total energy    Change
  ------------------------------------------------------------------------------
     1 OT DIIS     0.80E-01    6.5     0.00007405      -920.7691037335 -9.21E+02
     2 OT DIIS     0.80E-01    7.8     0.00004275      -920.7691253423 -2.16E-05
     3 OT DIIS     0.80E-01    7.8     0.00002238      -920.7691351989 -9.86E-06
     4 OT DIIS     0.80E-01    7.9     0.00000744      -920.7691383249 -3.13E-06

  *** SCF run converged in     4 steps ***


  Electronic density on regular grids:       -415.9999923468        0.0000076532
  Core density on regular grids:              415.9999999751       -0.0000000249
  Total charge density on r-space grids:        0.0000076283
  Total charge density g-space grids:           0.0000076283

  Overlap energy of the core charge distribution:               0.00000007877444
  Self energy of the core charge distribution:              -2388.37244906618980
  Core Hamiltonian energy:                                    696.97221371892931
  Hartree energy:                                             990.03722717381572
  Exchange-correlation energy:                               -219.40613023018648

  Total energy:                                              -920.76913832485684

 ENERGY| Total FORCE_EVAL ( QS ) energy [hartree]           -920.769138670078519

 OPT| **************************************************************************
 OPT| Step number                                                            126
 OPT| Optimization method                                                  LBFGS
 OPT| Total energy [hartree]                                     -920.7691386701
 OPT| Effective energy change [hartree]                            -0.0000155587
 OPT| Decrease in energy                                                     YES
 OPT| Used time [s]                                                       40.860
 OPT|
 OPT| Maximum step size                                             0.0132162821
 OPT| Convergence limit for maximum step size                       0.0030000000
 OPT| Maximum step size is converged                                          NO
 OPT|
 OPT| RMS step size                                                 0.0011716497
 OPT| Convergence limit for RMS step size                           0.0015000000
 OPT| RMS step size is converged                                             YES
 OPT|
 OPT| Maximum gradient                                              0.0006437120
 OPT| Convergence limit for maximum gradient                        0.0010000000
 OPT| Maximum gradient is converged                                          YES
 OPT|
 OPT| RMS gradient                                                  0.0001521239
 OPT| Convergence limit for RMS gradient                            0.0003000000
 OPT| RMS gradient is converged                                              YES
 OPT| **************************************************************************
 OPT| Estimated peak process memory after this step [MiB]                   1993

 --------------------------
 OPTIMIZATION STEP:    127
 --------------------------

 Number of electrons:                                                        416
 Number of occupied orbitals:                                                208
 Number of molecular orbitals:                                               208

 Number of orbital functions:                                                318
 Number of independent orbital functions:                                    318

 Extrapolation method: ASPC


 SCF WAVEFUNCTION OPTIMIZATION

  ----------------------------------- OT ---------------------------------------
  Minimizer      : DIIS                : direct inversion
                                         in the iterative subspace
                                         using   7 DIIS vectors
                                         safer DIIS on
  Preconditioner : FULL_SINGLE_INVERSE : inversion of 
                                         H + eS - 2*(Sc)(c^T*H*c+const)(Sc)^T
  Precond_solver : DEFAULT
  stepsize       :    0.08000000                  energy_gap     :    0.08000000
  eps_taylor     :   0.10000E-15                  max_taylor     :             4
  ----------------------------------- OT ---------------------------------------

  Step     Update method      Time    Convergence         Total energy    Change
  ------------------------------------------------------------------------------
     1 OT DIIS     0.80E-01    6.5     0.00009068      -920.7690964119 -9.21E+02
     2 OT DIIS     0.80E-01    7.8     0.00005582      -920.7691306984 -3.43E-05
     3 OT DIIS     0.80E-01    7.8     0.00002255      -920.7691510644 -2.04E-05
     4 OT DIIS     0.80E-01    7.8     0.00000740      -920.7691542480 -3.18E-06

  *** SCF run converged in     4 steps ***


  Electronic density on regular grids:       -415.9999923683        0.0000076317
  Core density on regular grids:              415.9999999751       -0.0000000249
  Total charge density on r-space grids:        0.0000076068
  Total charge density g-space grids:           0.0000076068

  Overlap energy of the core charge distribution:               0.00000007843787
  Self energy of the core charge distribution:              -2388.37244906618980
  Core Hamiltonian energy:                                    696.97078609336756
  Hartree energy:                                             990.03802671935955
  Exchange-correlation energy:                               -219.40551807300150

  Total energy:                                              -920.76915424802610

 ENERGY| Total FORCE_EVAL ( QS ) energy [hartree]           -920.769154565652570

 OPT| **************************************************************************
 OPT| Step number                                                            127
 OPT| Optimization method                                                  LBFGS
 OPT| Total energy [hartree]                                     -920.7691545657
 OPT| Effective energy change [hartree]                            -0.0000158956
 OPT| Decrease in energy                                                     YES
 OPT| Used time [s]                                                       40.849
 OPT|
 OPT| Maximum step size                                             0.0277677111
 OPT| Convergence limit for maximum step size                       0.0030000000
 OPT| Maximum step size is converged                                          NO
 OPT|
 OPT| RMS step size                                                 0.0023761887
 OPT| Convergence limit for RMS step size                           0.0015000000
 OPT| RMS step size is converged                                              NO
 OPT|
 OPT| Maximum gradient                                              0.0009447299
 OPT| Convergence limit for maximum gradient                        0.0010000000
 OPT| Maximum gradient is converged                                          YES
 OPT|
 OPT| RMS gradient                                                  0.0002008661
 OPT| Convergence limit for RMS gradient                            0.0003000000
 OPT| RMS gradient is converged                                              YES
 OPT| **************************************************************************
 OPT| Estimated peak process memory after this step [MiB]                   1993

 --------------------------
 OPTIMIZATION STEP:    128
 --------------------------

 Number of electrons:                                                        416
 Number of occupied orbitals:                                                208
 Number of molecular orbitals:                                               208

 Number of orbital functions:                                                318
 Number of independent orbital functions:                                    318

 Extrapolation method: ASPC


 SCF WAVEFUNCTION OPTIMIZATION

  ----------------------------------- OT ---------------------------------------
  Minimizer      : DIIS                : direct inversion
                                         in the iterative subspace
                                         using   7 DIIS vectors
                                         safer DIIS on
  Preconditioner : FULL_SINGLE_INVERSE : inversion of 
                                         H + eS - 2*(Sc)(c^T*H*c+const)(Sc)^T
  Precond_solver : DEFAULT
  stepsize       :    0.08000000                  energy_gap     :    0.08000000
  eps_taylor     :   0.10000E-15                  max_taylor     :             4
  ----------------------------------- OT ---------------------------------------

  Step     Update method      Time    Convergence         Total energy    Change
  ------------------------------------------------------------------------------
     1 OT DIIS     0.80E-01    6.5     0.00006509      -920.7691469647 -9.21E+02
     2 OT DIIS     0.80E-01    7.8     0.00004048      -920.7691648399 -1.79E-05
     3 OT DIIS     0.80E-01    7.8     0.00001377      -920.7691760747 -1.12E-05
     4 OT DIIS     0.80E-01    7.9     0.00000479      -920.7691772034 -1.13E-06

  *** SCF run converged in     4 steps ***


  Electronic density on regular grids:       -415.9999923928        0.0000076072
  Core density on regular grids:              415.9999999751       -0.0000000249
  Total charge density on r-space grids:        0.0000075823
  Total charge density g-space grids:           0.0000075823

  Overlap energy of the core charge distribution:               0.00000007837271
  Self energy of the core charge distribution:              -2388.37244906618980
  Core Hamiltonian energy:                                    696.96773816440657
  Hartree energy:                                             990.04032253877153
  Exchange-correlation energy:                               -219.40478891873587

  Total energy:                                              -920.76917720337519

 ENERGY| Total FORCE_EVAL ( QS ) energy [hartree]           -920.769177330989805

 Number of electrons:                                                        416
 Number of occupied orbitals:                                                208
 Number of molecular orbitals:                                               208

 Number of orbital functions:                                                318
 Number of independent orbital functions:                                    318

 Extrapolation method: ASPC


 SCF WAVEFUNCTION OPTIMIZATION

  ----------------------------------- OT ---------------------------------------
  Minimizer      : DIIS                : direct inversion
                                         in the iterative subspace
                                         using   7 DIIS vectors
                                         safer DIIS on
  Preconditioner : FULL_SINGLE_INVERSE : inversion of 
                                         H + eS - 2*(Sc)(c^T*H*c+const)(Sc)^T
  Precond_solver : DEFAULT
  stepsize       :    0.08000000                  energy_gap     :    0.08000000
  eps_taylor     :   0.10000E-15                  max_taylor     :             4
  ----------------------------------- OT ---------------------------------------

  Step     Update method      Time    Convergence         Total energy    Change
  ------------------------------------------------------------------------------
     1 OT DIIS     0.80E-01    6.5     0.00021656      -920.7689068510 -9.21E+02
     2 OT DIIS     0.80E-01    7.8     0.00014022      -920.7691094605 -2.03E-04
     3 OT DIIS     0.80E-01    7.8     0.00003699      -920.7692564248 -1.47E-04
     4 OT DIIS     0.80E-01    7.8     0.00001329      -920.7692637094 -7.28E-06
     5 OT DIIS     0.80E-01    7.9     0.00000566      -920.7692646024 -8.93E-07

  *** SCF run converged in     5 steps ***


  Electronic density on regular grids:       -415.9999924844        0.0000075156
  Core density on regular grids:              415.9999999752       -0.0000000248
  Total charge density on r-space grids:        0.0000074908
  Total charge density g-space grids:           0.0000074908

  Overlap energy of the core charge distribution:               0.00000007791418
  Self energy of the core charge distribution:              -2388.37244906618980
  Core Hamiltonian energy:                                    696.95307670336865
  Hartree energy:                                             990.05117043003531
  Exchange-correlation energy:                               -219.40106274750983

  Total energy:                                              -920.76926460238155

 ENERGY| Total FORCE_EVAL ( QS ) energy [hartree]           -920.769264782871119

 OPT| **************************************************************************
 OPT| Step number                                                            128
 OPT| Optimization method                                                  LBFGS
 OPT| Total energy [hartree]                                     -920.7692647829
 OPT| Effective energy change [hartree]                            -0.0001102172
 OPT| Decrease in energy                                                     YES
 OPT| Used time [s]                                                       89.575
 OPT|
 OPT| Maximum step size                                             0.1215908548
 OPT| Convergence limit for maximum step size                       0.0030000000
 OPT| Maximum step size is converged                                          NO
 OPT|
 OPT| RMS step size                                                 0.0101128491
 OPT| Convergence limit for RMS step size                           0.0015000000
 OPT| RMS step size is converged                                              NO
 OPT|
 OPT| Maximum gradient                                              0.0065247283
 OPT| Convergence limit for maximum gradient                        0.0010000000
 OPT| Maximum gradient is converged                                           NO
 OPT|
 OPT| RMS gradient                                                  0.0007214792
 OPT| Convergence limit for RMS gradient                            0.0003000000
 OPT| RMS gradient is converged                                               NO
 OPT| **************************************************************************
 OPT| Estimated peak process memory after this step [MiB]                   1993

 --------------------------
 OPTIMIZATION STEP:    129
 --------------------------

 Number of electrons:                                                        416
 Number of occupied orbitals:                                                208
 Number of molecular orbitals:                                               208

 Number of orbital functions:                                                318
 Number of independent orbital functions:                                    318

 Extrapolation method: ASPC


 SCF WAVEFUNCTION OPTIMIZATION

  ----------------------------------- OT ---------------------------------------
  Minimizer      : DIIS                : direct inversion
                                         in the iterative subspace
                                         using   7 DIIS vectors
                                         safer DIIS on
  Preconditioner : FULL_SINGLE_INVERSE : inversion of 
                                         H + eS - 2*(Sc)(c^T*H*c+const)(Sc)^T
  Precond_solver : DEFAULT
  stepsize       :    0.08000000                  energy_gap     :    0.08000000
  eps_taylor     :   0.10000E-15                  max_taylor     :             4
  ----------------------------------- OT ---------------------------------------

  Step     Update method      Time    Convergence         Total energy    Change
  ------------------------------------------------------------------------------
     1 OT DIIS     0.80E-01    6.6     0.00935371      -919.6284136331 -9.20E+02
     2 OT DIIS     0.80E-01    7.9     0.01221701      -919.8034282977 -1.75E-01
     3 OT DIIS     0.80E-01    7.9     0.00602562      -919.9200280202 -1.17E-01
     4 OT DIIS     0.80E-01    8.0     0.00304432      -920.0166446784 -9.66E-02
     5 OT DIIS     0.80E-01    7.9     0.00262283      -920.0735835116 -5.69E-02
     6 OT DIIS     0.80E-01    7.8     0.00146223      -920.0887323734 -1.51E-02
     7 OT DIIS     0.80E-01    7.9     0.00071526      -920.0971933303 -8.46E-03
     8 OT DIIS     0.80E-01    7.9     0.00052407      -920.1007302728 -3.54E-03
     9 OT DIIS     0.80E-01    7.8     0.00042301      -920.1023628943 -1.63E-03
    10 OT DIIS     0.80E-01    7.9     0.00028785      -920.1037108742 -1.35E-03
    11 OT DIIS     0.80E-01    7.9     0.00020929      -920.1044051521 -6.94E-04
    12 OT DIIS     0.80E-01    7.9     0.00017625      -920.1046857105 -2.81E-04
    13 OT DIIS     0.80E-01    7.9     0.00012261      -920.1048710797 -1.85E-04
    14 OT DIIS     0.80E-01    7.8     0.00010866      -920.1049935457 -1.22E-04
    15 OT DIIS     0.80E-01    7.9     0.00008540      -920.1050572901 -6.37E-05
    16 OT DIIS     0.80E-01    7.8     0.00007071      -920.1051346791 -7.74E-05
    17 OT DIIS     0.80E-01    7.8     0.00006664      -920.1051759930 -4.13E-05
    18 OT DIIS     0.80E-01    7.9     0.00006197      -920.1052130486 -3.71E-05
    19 OT DIIS     0.80E-01    7.9     0.00005932      -920.1052755825 -6.25E-05
    20 OT DIIS     0.80E-01    7.9     0.00005667      -920.1053017340 -2.62E-05
    21 OT DIIS     0.80E-01    7.9     0.00005464      -920.1053711342 -6.94E-05
    22 OT DIIS     0.80E-01    7.8     0.00004939      -920.1053957495 -2.46E-05
    23 OT DIIS     0.80E-01    7.8     0.00004503      -920.1054476717 -5.19E-05
    24 OT DIIS     0.80E-01    7.9     0.00004532      -920.1055021880 -5.45E-05
    25 OT DIIS     0.80E-01    7.9     0.00003780      -920.1055384819 -3.63E-05
    26 OT DIIS     0.80E-01    7.9     0.00003522      -920.1055732791 -3.48E-05
    27 OT DIIS     0.80E-01    7.9     0.00003119      -920.1055993058 -2.60E-05
    28 OT DIIS     0.80E-01    7.9     0.00003722      -920.1056185270 -1.92E-05
    29 OT DIIS     0.80E-01    7.9     0.00003906      -920.1056303668 -1.18E-05
    30 OT DIIS     0.80E-01    7.8     0.00002404      -920.1056503008 -1.99E-05
    31 OT DIIS     0.80E-01    7.8     0.00002200      -920.1056614914 -1.12E-05
    32 OT DIIS     0.80E-01    7.9     0.00002243      -920.1056690580 -7.57E-06
    33 OT DIIS     0.80E-01    7.8     0.00001816      -920.1056764770 -7.42E-06
    34 OT DIIS     0.80E-01    7.9     0.00001727      -920.1056802294 -3.75E-06
    35 OT DIIS     0.80E-01    7.9     0.00001612      -920.1056846567 -4.43E-06
    36 OT DIIS     0.80E-01    7.9     0.00001626      -920.1056852716 -6.15E-07
    37 OT DIIS     0.80E-01    7.9     0.00001493      -920.1056888600 -3.59E-06
    38 OT DIIS     0.80E-01    7.8     0.00001492      -920.1056905964 -1.74E-06
    39 OT DIIS     0.80E-01    7.8     0.00001417      -920.1056934165 -2.82E-06
    40 OT DIIS     0.80E-01    7.9     0.00001337      -920.1056978649 -4.45E-06
    41 OT DIIS     0.80E-01    7.8     0.00001315      -920.1057001304 -2.27E-06
    42 OT DIIS     0.80E-01    7.9     0.00001234      -920.1057042804 -4.15E-06
    43 OT DIIS     0.80E-01    7.9     0.00001166      -920.1057079419 -3.66E-06
    44 OT DIIS     0.80E-01    7.9     0.00001134      -920.1057115533 -3.61E-06
    45 OT DIIS     0.80E-01    7.9     0.00001111      -920.1057133313 -1.78E-06
    46 OT DIIS     0.80E-01    7.8     0.00001061      -920.1057165193 -3.19E-06
    47 OT DIIS     0.80E-01    7.8     0.00001040      -920.1057175486 -1.03E-06
    48 OT DIIS     0.80E-01    7.9     0.00001033      -920.1057187783 -1.23E-06
    49 OT DIIS     0.80E-01    7.8     0.00001031      -920.1057196844 -9.06E-07
    50 OT DIIS     0.80E-01    7.8     0.00001029      -920.1057200919 -4.08E-07
    51 OT DIIS     0.80E-01    7.9     0.00001029      -920.1057202357 -1.44E-07
    52 OT DIIS     0.80E-01    7.9     0.00001029      -920.1057210323 -7.97E-07
    53 OT DIIS     0.80E-01    7.9     0.00001026      -920.1057213013 -2.69E-07
    54 OT DIIS     0.80E-01    7.8     0.00001026      -920.1057217956 -4.94E-07
    55 OT DIIS     0.80E-01    7.8     0.00001026      -920.1057218098 -1.43E-08
    56 OT DIIS     0.80E-01    7.9     0.00001028      -920.1057222723 -4.62E-07
    57 OT SD       0.80E-01    7.9     0.00001028      -920.1057225600 -2.88E-07
    58 OT SD       0.80E-01    7.8     0.00001032      -920.1057231190 -5.59E-07
    59 OT SD       0.80E-01    7.9     0.00001038      -920.1057236818 -5.63E-07
    60 OT SD       0.80E-01    7.9     0.00001048      -920.1057242485 -5.67E-07
    61 OT SD       0.80E-01    7.9     0.00001067      -920.1057248183 -5.70E-07
    62 OT SD       0.80E-01    7.9     0.00001115      -920.1057253873 -5.69E-07
    63 OT SD       0.80E-01    7.8     0.00001253      -920.1057259413 -5.54E-07
    64 OT SD       0.80E-01    7.9     0.00001631      -920.1057264304 -4.89E-07
    65 OT SD       0.80E-01    7.9     0.00002549      -920.1057266747 -2.44E-07
    66 OT SD       0.80E-01    7.8     0.00004501      -920.1057260189  6.56E-07
    67 OT SD       0.80E-01    7.9     0.00008412      -920.1057220619  3.96E-06
    68 OT DIIS     0.80E-01    7.9     0.00015968      -920.1057058511  1.62E-05
    69 OT SD       0.80E-01    7.9     0.00002067      -920.1057072839 -1.43E-06
    70 OT DIIS     0.80E-01    7.9     0.00002697      -920.1057076250 -3.41E-07
    71 OT SD       0.80E-01    7.8     0.00001115      -920.1057083756 -7.51E-07
    72 OT SD       0.80E-01    7.9     0.00001227      -920.1057087586 -3.83E-07
    73 OT SD       0.80E-01    7.8     0.00001857      -920.1057089369 -1.78E-07
    74 OT DIIS     0.80E-01    7.9     0.00003301      -920.1057086008  3.36E-07
    75 OT DIIS     0.80E-01    7.9     0.00000833      -920.1057085191  8.17E-08

  *** SCF run converged in    75 steps ***


  Electronic density on regular grids:       -415.9999985726        0.0000014274
  Core density on regular grids:              415.9999999752       -0.0000000248
  Total charge density on r-space grids:        0.0000014026
  Total charge density g-space grids:           0.0000014026

  Overlap energy of the core charge distribution:               0.00000007991474
  Self energy of the core charge distribution:              -2388.37244906618980
  Core Hamiltonian energy:                                    695.42487168254809
  Hartree energy:                                             991.50487832995361
  Exchange-correlation energy:                               -218.66300954527981

  Total energy:                                              -920.10570851905322

 ENERGY| Total FORCE_EVAL ( QS ) energy [hartree]           -920.105709867245764

 Number of electrons:                                                        416
 Number of occupied orbitals:                                                208
 Number of molecular orbitals:                                               208

 Number of orbital functions:                                                318
 Number of independent orbital functions:                                    318

 Extrapolation method: ASPC


 SCF WAVEFUNCTION OPTIMIZATION

  ----------------------------------- OT ---------------------------------------
  Minimizer      : DIIS                : direct inversion
                                         in the iterative subspace
                                         using   7 DIIS vectors
                                         safer DIIS on
  Preconditioner : FULL_SINGLE_INVERSE : inversion of 
                                         H + eS - 2*(Sc)(c^T*H*c+const)(Sc)^T
  Precond_solver : DEFAULT
  stepsize       :    0.08000000                  energy_gap     :    0.08000000
  eps_taylor     :   0.10000E-15                  max_taylor     :             4
  ----------------------------------- OT ---------------------------------------

  Step     Update method      Time    Convergence         Total energy    Change
  ------------------------------------------------------------------------------
     1 OT DIIS     0.80E-01    6.5     0.02458088      -916.6656841303 -9.17E+02
     2 OT DIIS     0.80E-01    7.9     0.01570848      -918.9639415708 -2.30E+00
     3 OT DIIS     0.80E-01    7.9     0.01149805      -919.9772398857 -1.01E+00
     4 OT DIIS     0.80E-01    7.8     0.00734735      -920.4892278572 -5.12E-01
     5 OT DIIS     0.80E-01    7.9     0.00336460      -920.6843722012 -1.95E-01
     6 OT DIIS     0.80E-01    7.9     0.00199241      -920.7310916335 -4.67E-02
     7 OT DIIS     0.80E-01    7.9     0.00113836      -920.7595257177 -2.84E-02
     8 OT DIIS     0.80E-01    7.9     0.00062605      -920.7656614002 -6.14E-03
     9 OT DIIS     0.80E-01    7.8     0.00033161      -920.7682335344 -2.57E-03
    10 OT DIIS     0.80E-01    7.9     0.00019274      -920.7688308577 -5.97E-04
    11 OT DIIS     0.80E-01    7.9     0.00011624      -920.7691289161 -2.98E-04
    12 OT DIIS     0.80E-01    7.9     0.00007234      -920.7692210520 -9.21E-05
    13 OT DIIS     0.80E-01    7.9     0.00005308      -920.7692507871 -2.97E-05
    14 OT DIIS     0.80E-01    7.9     0.00003483      -920.7692630081 -1.22E-05
    15 OT DIIS     0.80E-01    7.9     0.00001876      -920.7692718026 -8.79E-06
    16 OT DIIS     0.80E-01    7.9     0.00001327      -920.7692744495 -2.65E-06
    17 OT DIIS     0.80E-01    7.9     0.00000832      -920.7692754774 -1.03E-06

  *** SCF run converged in    17 steps ***


  Electronic density on regular grids:       -415.9999924945        0.0000075055
  Core density on regular grids:              415.9999999752       -0.0000000248
  Total charge density on r-space grids:        0.0000074807
  Total charge density g-space grids:           0.0000074807

  Overlap energy of the core charge distribution:               0.00000007783822
  Self energy of the core charge distribution:              -2388.37244906618980
  Core Hamiltonian energy:                                    696.95095754741226
  Hartree energy:                                             990.05274816281371
  Exchange-correlation energy:                               -219.40053219926969

  Total energy:                                              -920.76927547739547

 ENERGY| Total FORCE_EVAL ( QS ) energy [hartree]           -920.769276008592215

 Number of electrons:                                                        416
 Number of occupied orbitals:                                                208
 Number of molecular orbitals:                                               208

 Number of orbital functions:                                                318
 Number of independent orbital functions:                                    318

 Extrapolation method: ASPC


 SCF WAVEFUNCTION OPTIMIZATION

  ----------------------------------- OT ---------------------------------------
  Minimizer      : DIIS                : direct inversion
                                         in the iterative subspace
                                         using   7 DIIS vectors
                                         safer DIIS on
  Preconditioner : FULL_SINGLE_INVERSE : inversion of 
                                         H + eS - 2*(Sc)(c^T*H*c+const)(Sc)^T
  Precond_solver : DEFAULT
  stepsize       :    0.08000000                  energy_gap     :    0.08000000
  eps_taylor     :   0.10000E-15                  max_taylor     :             4
  ----------------------------------- OT ---------------------------------------

  Step     Update method      Time    Convergence         Total energy    Change
  ------------------------------------------------------------------------------
     1 OT DIIS     0.80E-01    6.6     0.02500775      -917.5086496135 -9.18E+02
     2 OT DIIS     0.80E-01    7.9     0.01731888      -919.4244921263 -1.92E+00
     3 OT DIIS     0.80E-01    7.9     0.01384999      -920.0521630169 -6.28E-01
     4 OT DIIS     0.80E-01    7.9     0.00697210      -920.5185454435 -4.66E-01
     5 OT DIIS     0.80E-01    7.8     0.00305709      -920.7121142474 -1.94E-01
     6 OT DIIS     0.80E-01    7.9     0.00171101      -920.7515021080 -3.94E-02
     7 OT DIIS     0.80E-01    7.9     0.00097891      -920.7604259393 -8.92E-03
     8 OT DIIS     0.80E-01    7.8     0.00045500      -920.7642263501 -3.80E-03
     9 OT DIIS     0.80E-01    7.9     0.00026249      -920.7652967842 -1.07E-03
    10 OT DIIS     0.80E-01    7.9     0.00018276      -920.7655794337 -2.83E-04
    11 OT DIIS     0.80E-01    7.9     0.00009731      -920.7656949093 -1.15E-04
    12 OT DIIS     0.80E-01    7.8     0.00005812      -920.7657405584 -4.56E-05
    13 OT DIIS     0.80E-01    7.9     0.00003813      -920.7657531503 -1.26E-05
    14 OT DIIS     0.80E-01    7.9     0.00002190      -920.7657594275 -6.28E-06
    15 OT DIIS     0.80E-01    7.8     0.00001493      -920.7657616963 -2.27E-06
    16 OT DIIS     0.80E-01    7.8     0.00000898      -920.7657625057 -8.09E-07

  *** SCF run converged in    16 steps ***


  Electronic density on regular grids:       -415.9999930132        0.0000069868
  Core density on regular grids:              415.9999999755       -0.0000000245
  Total charge density on r-space grids:        0.0000069623
  Total charge density g-space grids:           0.0000069623

  Overlap energy of the core charge distribution:               0.00000007385665
  Self energy of the core charge distribution:              -2388.37244906618980
  Core Hamiltonian energy:                                    696.83526058207781
  Hartree energy:                                             990.13714594219925
  Exchange-correlation energy:                               -219.36572003765863

  Total energy:                                              -920.76576250571497

 ENERGY| Total FORCE_EVAL ( QS ) energy [hartree]           -920.765762846400435

 Number of electrons:                                                        416
 Number of occupied orbitals:                                                208
 Number of molecular orbitals:                                               208

 Number of orbital functions:                                                318
 Number of independent orbital functions:                                    318

 Extrapolation method: ASPC


 SCF WAVEFUNCTION OPTIMIZATION

  ----------------------------------- OT ---------------------------------------
  Minimizer      : DIIS                : direct inversion
                                         in the iterative subspace
                                         using   7 DIIS vectors
                                         safer DIIS on
  Preconditioner : FULL_SINGLE_INVERSE : inversion of 
                                         H + eS - 2*(Sc)(c^T*H*c+const)(Sc)^T
  Precond_solver : DEFAULT
  stepsize       :    0.08000000                  energy_gap     :    0.08000000
  eps_taylor     :   0.10000E-15                  max_taylor     :             4
  ----------------------------------- OT ---------------------------------------

  Step     Update method      Time    Convergence         Total energy    Change
  ------------------------------------------------------------------------------
     1 OT DIIS     0.80E-01    6.5     0.02240998      -917.3392388296 -9.17E+02
     2 OT DIIS     0.80E-01    7.8     0.01463101      -919.2371641721 -1.90E+00
     3 OT DIIS     0.80E-01    7.9     0.01106030      -920.0598320008 -8.23E-01
     4 OT DIIS     0.80E-01    7.8     0.00699247      -920.5132847080 -4.53E-01
     5 OT DIIS     0.80E-01    7.8     0.00312847      -920.6968308502 -1.84E-01
     6 OT DIIS     0.80E-01    7.8     0.00193697      -920.7329650484 -3.61E-02
     7 OT DIIS     0.80E-01    7.9     0.00111969      -920.7592130690 -2.62E-02
     8 OT DIIS     0.80E-01    7.9     0.00063306      -920.7656446493 -6.43E-03
     9 OT DIIS     0.80E-01    7.8     0.00034982      -920.7681543607 -2.51E-03
    10 OT DIIS     0.80E-01    7.8     0.00018739      -920.7688566954 -7.02E-04
    11 OT DIIS     0.80E-01    7.9     0.00011621      -920.7691474087 -2.91E-04
    12 OT DIIS     0.80E-01    7.8     0.00007766      -920.7692368620 -8.95E-05
    13 OT DIIS     0.80E-01    7.8     0.00005960      -920.7692736691 -3.68E-05
    14 OT DIIS     0.80E-01    7.8     0.00003663      -920.7692889282 -1.53E-05
    15 OT DIIS     0.80E-01    7.8     0.00001900      -920.7693002580 -1.13E-05
    16 OT DIIS     0.80E-01    7.9     0.00001419      -920.7693027034 -2.45E-06
    17 OT DIIS     0.80E-01    7.8     0.00000850      -920.7693040726 -1.37E-06

  *** SCF run converged in    17 steps ***


  Electronic density on regular grids:       -415.9999925215        0.0000074785
  Core density on regular grids:              415.9999999753       -0.0000000247
  Total charge density on r-space grids:        0.0000074538
  Total charge density g-space grids:           0.0000074538

  Overlap energy of the core charge distribution:               0.00000007759141
  Self energy of the core charge distribution:              -2388.37244906618980
  Core Hamiltonian energy:                                    696.94446262476231
  Hartree energy:                                             990.05749307627684
  Exchange-correlation energy:                               -219.39881078502279

  Total energy:                                              -920.76930407258214

 ENERGY| Total FORCE_EVAL ( QS ) energy [hartree]           -920.769304710759684

 OPT| **************************************************************************
 OPT| Step number                                                            129
 OPT| Optimization method                                                  LBFGS
 OPT| Total energy [hartree]                                     -920.7693047108
 OPT| Effective energy change [hartree]                            -0.0000399279
 OPT| Decrease in energy                                                     YES
 OPT| Used time [s]                                                     1020.183
 OPT|
 OPT| Maximum step size                                             0.0488927219
 OPT| Convergence limit for maximum step size                       0.0030000000
 OPT| Maximum step size is converged                                          NO
 OPT|
 OPT| RMS step size                                                 0.0040727324
 OPT| Convergence limit for RMS step size                           0.0015000000
 OPT| RMS step size is converged                                              NO
 OPT|
 OPT| Maximum gradient                                              0.0081306305
 OPT| Convergence limit for maximum gradient                        0.0010000000
 OPT| Maximum gradient is converged                                           NO
 OPT|
 OPT| RMS gradient                                                  0.0009631787
 OPT| Convergence limit for RMS gradient                            0.0003000000
 OPT| RMS gradient is converged                                               NO
 OPT| **************************************************************************
 OPT| Estimated peak process memory after this step [MiB]                   1993

 --------------------------
 OPTIMIZATION STEP:    130
 --------------------------

 Number of electrons:                                                        416
 Number of occupied orbitals:                                                208
 Number of molecular orbitals:                                               208

 Number of orbital functions:                                                318
 Number of independent orbital functions:                                    318

 Extrapolation method: ASPC


 SCF WAVEFUNCTION OPTIMIZATION

  ----------------------------------- OT ---------------------------------------
  Minimizer      : DIIS                : direct inversion
                                         in the iterative subspace
                                         using   7 DIIS vectors
                                         safer DIIS on
  Preconditioner : FULL_SINGLE_INVERSE : inversion of 
                                         H + eS - 2*(Sc)(c^T*H*c+const)(Sc)^T
  Precond_solver : DEFAULT
  stepsize       :    0.08000000                  energy_gap     :    0.08000000
  eps_taylor     :   0.10000E-15                  max_taylor     :             4
  ----------------------------------- OT ---------------------------------------

  Step     Update method      Time    Convergence         Total energy    Change
  ------------------------------------------------------------------------------
     1 OT DIIS     0.80E-01    6.5     0.00905058      -920.3202811220 -9.20E+02
     2 OT DIIS     0.80E-01    7.9     0.00511896      -920.6220402217 -3.02E-01
     3 OT DIIS     0.80E-01    7.8     0.00402323      -920.7157658375 -9.37E-02
     4 OT DIIS     0.80E-01    7.9     0.00147771      -920.7602112417 -4.44E-02
     5 OT DIIS     0.80E-01    7.8     0.00063453      -920.7675983673 -7.39E-03
     6 OT DIIS     0.80E-01    7.8     0.00025450      -920.7688525052 -1.25E-03
     7 OT DIIS     0.80E-01    7.8     0.00012035      -920.7690991539 -2.47E-04
     8 OT DIIS     0.80E-01    7.8     0.00005186      -920.7691558116 -5.67E-05
     9 OT DIIS     0.80E-01    7.8     0.00002366      -920.7691658876 -1.01E-05
    10 OT DIIS     0.80E-01    7.9     0.00001143      -920.7691680177 -2.13E-06
    11 OT DIIS     0.80E-01    7.8     0.00000662      -920.7691684121 -3.94E-07

  *** SCF run converged in    11 steps ***


  Electronic density on regular grids:       -415.9999926423        0.0000073577
  Core density on regular grids:              415.9999999753       -0.0000000247
  Total charge density on r-space grids:        0.0000073330
  Total charge density g-space grids:           0.0000073330

  Overlap energy of the core charge distribution:               0.00000007649280
  Self energy of the core charge distribution:              -2388.37244906618980
  Core Hamiltonian energy:                                    696.90320233730984
  Hartree energy:                                             990.08812317672619
  Exchange-correlation energy:                               -219.38804493640706

  Total energy:                                              -920.76916841206832

 ENERGY| Total FORCE_EVAL ( QS ) energy [hartree]           -920.769168525349642

 Number of electrons:                                                        416
 Number of occupied orbitals:                                                208
 Number of molecular orbitals:                                               208

 Number of orbital functions:                                                318
 Number of independent orbital functions:                                    318

 Extrapolation method: ASPC


 SCF WAVEFUNCTION OPTIMIZATION

  ----------------------------------- OT ---------------------------------------
  Minimizer      : DIIS                : direct inversion
                                         in the iterative subspace
                                         using   7 DIIS vectors
                                         safer DIIS on
  Preconditioner : FULL_SINGLE_INVERSE : inversion of 
                                         H + eS - 2*(Sc)(c^T*H*c+const)(Sc)^T
  Precond_solver : DEFAULT
  stepsize       :    0.08000000                  energy_gap     :    0.08000000
  eps_taylor     :   0.10000E-15                  max_taylor     :             4
  ----------------------------------- OT ---------------------------------------

  Step     Update method      Time    Convergence         Total energy    Change
  ------------------------------------------------------------------------------
     1 OT DIIS     0.80E-01    6.5     0.00397390      -920.6555594481 -9.21E+02
     2 OT DIIS     0.80E-01    7.8     0.00250522      -920.7216551725 -6.61E-02
     3 OT DIIS     0.80E-01    7.8     0.00113968      -920.7615673651 -3.99E-02
     4 OT DIIS     0.80E-01    7.9     0.00026776      -920.7688656981 -7.30E-03
     5 OT DIIS     0.80E-01    7.8     0.00012618      -920.7692460456 -3.80E-04
     6 OT DIIS     0.80E-01    7.9     0.00006378      -920.7693214748 -7.54E-05
     7 OT DIIS     0.80E-01    7.9     0.00002558      -920.7693455342 -2.41E-05
     8 OT DIIS     0.80E-01    7.8     0.00000985      -920.7693498670 -4.33E-06

  *** SCF run converged in     8 steps ***


  Electronic density on regular grids:       -415.9999925605        0.0000074395
  Core density on regular grids:              415.9999999753       -0.0000000247
  Total charge density on r-space grids:        0.0000074148
  Total charge density g-space grids:           0.0000074148

  Overlap energy of the core charge distribution:               0.00000007729092
  Self energy of the core charge distribution:              -2388.37244906618980
  Core Hamiltonian energy:                                    696.93144458035806
  Hartree energy:                                             990.06721086378991
  Exchange-correlation energy:                               -219.39555632221510

  Total energy:                                              -920.76934986696597

 ENERGY| Total FORCE_EVAL ( QS ) energy [hartree]           -920.769350431134853

 OPT| **************************************************************************
 OPT| Step number                                                            130
 OPT| Optimization method                                                  LBFGS
 OPT| Total energy [hartree]                                     -920.7693504311
 OPT| Effective energy change [hartree]                            -0.0000457204
 OPT| Decrease in energy                                                     YES
 OPT| Used time [s]                                                      168.165
 OPT|
 OPT| Maximum step size                                             0.0578492068
 OPT| Convergence limit for maximum step size                       0.0030000000
 OPT| Maximum step size is converged                                          NO
 OPT|
 OPT| RMS step size                                                 0.0047872863
 OPT| Convergence limit for RMS step size                           0.0015000000
 OPT| RMS step size is converged                                              NO
 OPT|
 OPT| Maximum gradient                                              0.0085193144
 OPT| Convergence limit for maximum gradient                        0.0010000000
 OPT| Maximum gradient is converged                                           NO
 OPT|
 OPT| RMS gradient                                                  0.0011866558
 OPT| Convergence limit for RMS gradient                            0.0003000000
 OPT| RMS gradient is converged                                               NO
 OPT| **************************************************************************
 OPT| Estimated peak process memory after this step [MiB]                   1993

 --------------------------
 OPTIMIZATION STEP:    131
 --------------------------

 Number of electrons:                                                        416
 Number of occupied orbitals:                                                208
 Number of molecular orbitals:                                               208

 Number of orbital functions:                                                318
 Number of independent orbital functions:                                    318

 Extrapolation method: ASPC


 SCF WAVEFUNCTION OPTIMIZATION

  ----------------------------------- OT ---------------------------------------
  Minimizer      : DIIS                : direct inversion
                                         in the iterative subspace
                                         using   7 DIIS vectors
                                         safer DIIS on
  Preconditioner : FULL_SINGLE_INVERSE : inversion of 
                                         H + eS - 2*(Sc)(c^T*H*c+const)(Sc)^T
  Precond_solver : DEFAULT
  stepsize       :    0.08000000                  energy_gap     :    0.08000000
  eps_taylor     :   0.10000E-15                  max_taylor     :             4
  ----------------------------------- OT ---------------------------------------

  Step     Update method      Time    Convergence         Total energy    Change
  ------------------------------------------------------------------------------
     1 OT DIIS     0.80E-01    6.5     0.00194306      -920.7409334443 -9.21E+02
     2 OT DIIS     0.80E-01    7.8     0.00124995      -920.7571064446 -1.62E-02
     3 OT DIIS     0.80E-01    7.9     0.00042169      -920.7683165187 -1.12E-02
     4 OT DIIS     0.80E-01    7.9     0.00012075      -920.7693221676 -1.01E-03
     5 OT DIIS     0.80E-01    7.8     0.00005397      -920.7694000649 -7.79E-05
     6 OT DIIS     0.80E-01    7.8     0.00002699      -920.7694147516 -1.47E-05
     7 OT DIIS     0.80E-01    7.8     0.00001016      -920.7694192226 -4.47E-06
     8 OT DIIS     0.80E-01    7.8     0.00000407      -920.7694198988 -6.76E-07

  *** SCF run converged in     8 steps ***


  Electronic density on regular grids:       -415.9999925831        0.0000074169
  Core density on regular grids:              415.9999999753       -0.0000000247
  Total charge density on r-space grids:        0.0000073922
  Total charge density g-space grids:           0.0000073922

  Overlap energy of the core charge distribution:               0.00000007734644
  Self energy of the core charge distribution:              -2388.37244906618980
  Core Hamiltonian energy:                                    696.92151822225867
  Hartree energy:                                             990.07491972491755
  Exchange-correlation energy:                               -219.39340885713443

  Total energy:                                              -920.76941989880129

 ENERGY| Total FORCE_EVAL ( QS ) energy [hartree]           -920.769419997248178

 OPT| **************************************************************************
 OPT| Step number                                                            131
 OPT| Optimization method                                                  LBFGS
 OPT| Total energy [hartree]                                     -920.7694199972
 OPT| Effective energy change [hartree]                            -0.0000695661
 OPT| Decrease in energy                                                     YES
 OPT| Used time [s]                                                       72.217
 OPT|
 OPT| Maximum step size                                             0.0271165025
 OPT| Convergence limit for maximum step size                       0.0030000000
 OPT| Maximum step size is converged                                          NO
 OPT|
 OPT| RMS step size                                                 0.0022822268
 OPT| Convergence limit for RMS step size                           0.0015000000
 OPT| RMS step size is converged                                              NO
 OPT|
 OPT| Maximum gradient                                              0.0076672429
 OPT| Convergence limit for maximum gradient                        0.0010000000
 OPT| Maximum gradient is converged                                           NO
 OPT|
 OPT| RMS gradient                                                  0.0011431530
 OPT| Convergence limit for RMS gradient                            0.0003000000
 OPT| RMS gradient is converged                                               NO
 OPT| **************************************************************************
 OPT| Estimated peak process memory after this step [MiB]                   1993

 --------------------------
 OPTIMIZATION STEP:    132
 --------------------------

 Number of electrons:                                                        416
 Number of occupied orbitals:                                                208
 Number of molecular orbitals:                                               208

 Number of orbital functions:                                                318
 Number of independent orbital functions:                                    318

 Extrapolation method: ASPC


 SCF WAVEFUNCTION OPTIMIZATION

  ----------------------------------- OT ---------------------------------------
  Minimizer      : DIIS                : direct inversion
                                         in the iterative subspace
                                         using   7 DIIS vectors
                                         safer DIIS on
  Preconditioner : FULL_SINGLE_INVERSE : inversion of 
                                         H + eS - 2*(Sc)(c^T*H*c+const)(Sc)^T
  Precond_solver : DEFAULT
  stepsize       :    0.08000000                  energy_gap     :    0.08000000
  eps_taylor     :   0.10000E-15                  max_taylor     :             4
  ----------------------------------- OT ---------------------------------------

  Step     Update method      Time    Convergence         Total energy    Change
  ------------------------------------------------------------------------------
     1 OT DIIS     0.80E-01    6.5     0.00073723      -920.7654923393 -9.21E+02
     2 OT DIIS     0.80E-01    7.8     0.00047225      -920.7678041573 -2.31E-03
     3 OT DIIS     0.80E-01    7.8     0.00018624      -920.7693401704 -1.54E-03
     4 OT DIIS     0.80E-01    7.8     0.00004906      -920.7695418658 -2.02E-04
     5 OT DIIS     0.80E-01    7.8     0.00002133      -920.7695546645 -1.28E-05
     6 OT DIIS     0.80E-01    7.9     0.00001027      -920.7695569594 -2.29E-06
     7 OT DIIS     0.80E-01    7.8     0.00000373      -920.7695576271 -6.68E-07

  *** SCF run converged in     7 steps ***


  Electronic density on regular grids:       -415.9999926276        0.0000073724
  Core density on regular grids:              415.9999999753       -0.0000000247
  Total charge density on r-space grids:        0.0000073477
  Total charge density g-space grids:           0.0000073477

  Overlap energy of the core charge distribution:               0.00000007832928
  Self energy of the core charge distribution:              -2388.37244906618980
  Core Hamiltonian energy:                                    696.90101439917692
  Hartree energy:                                             990.09107135154704
  Exchange-correlation energy:                               -219.38919438992235

  Total energy:                                              -920.76955762705893

 ENERGY| Total FORCE_EVAL ( QS ) energy [hartree]           -920.769557712323149

 OPT| **************************************************************************
 OPT| Step number                                                            132
 OPT| Optimization method                                                  LBFGS
 OPT| Total energy [hartree]                                     -920.7695577123
 OPT| Effective energy change [hartree]                            -0.0001377151
 OPT| Decrease in energy                                                     YES
 OPT| Used time [s]                                                       64.406
 OPT|
 OPT| Maximum step size                                             0.0557123025
 OPT| Convergence limit for maximum step size                       0.0030000000
 OPT| Maximum step size is converged                                          NO
 OPT|
 OPT| RMS step size                                                 0.0046301244
 OPT| Convergence limit for RMS step size                           0.0015000000
 OPT| RMS step size is converged                                              NO
 OPT|
 OPT| Maximum gradient                                              0.0061391908
 OPT| Convergence limit for maximum gradient                        0.0010000000
 OPT| Maximum gradient is converged                                           NO
 OPT|
 OPT| RMS gradient                                                  0.0010826027
 OPT| Convergence limit for RMS gradient                            0.0003000000
 OPT| RMS gradient is converged                                               NO
 OPT| **************************************************************************
 OPT| Estimated peak process memory after this step [MiB]                   1993

 --------------------------
 OPTIMIZATION STEP:    133
 --------------------------

 Number of electrons:                                                        416
 Number of occupied orbitals:                                                208
 Number of molecular orbitals:                                               208

 Number of orbital functions:                                                318
 Number of independent orbital functions:                                    318

 Extrapolation method: ASPC


 SCF WAVEFUNCTION OPTIMIZATION

  ----------------------------------- OT ---------------------------------------
  Minimizer      : DIIS                : direct inversion
                                         in the iterative subspace
                                         using   7 DIIS vectors
                                         safer DIIS on
  Preconditioner : FULL_SINGLE_INVERSE : inversion of 
                                         H + eS - 2*(Sc)(c^T*H*c+const)(Sc)^T
  Precond_solver : DEFAULT
  stepsize       :    0.08000000                  energy_gap     :    0.08000000
  eps_taylor     :   0.10000E-15                  max_taylor     :             4
  ----------------------------------- OT ---------------------------------------

  Step     Update method      Time    Convergence         Total energy    Change
  ------------------------------------------------------------------------------
     1 OT DIIS     0.80E-01    6.5     0.00012096      -920.7696394165 -9.21E+02
     2 OT DIIS     0.80E-01    7.8     0.00006404      -920.7696936600 -5.42E-05
     3 OT DIIS     0.80E-01    7.8     0.00003492      -920.7697128835 -1.92E-05
     4 OT DIIS     0.80E-01    7.9     0.00001212      -920.7697200307 -7.15E-06
     5 OT DIIS     0.80E-01    7.8     0.00000449      -920.7697209720 -9.41E-07

  *** SCF run converged in     5 steps ***


  Electronic density on regular grids:       -415.9999926445        0.0000073555
  Core density on regular grids:              415.9999999753       -0.0000000247
  Total charge density on r-space grids:        0.0000073308
  Total charge density g-space grids:           0.0000073308

  Overlap energy of the core charge distribution:               0.00000007775793
  Self energy of the core charge distribution:              -2388.37244906618980
  Core Hamiltonian energy:                                    696.88678021739634
  Hartree energy:                                             990.10144427568707
  Exchange-correlation energy:                               -219.38549647661426

  Total energy:                                              -920.76972097196290

 ENERGY| Total FORCE_EVAL ( QS ) energy [hartree]           -920.769721087923244

 OPT| **************************************************************************
 OPT| Step number                                                            133
 OPT| Optimization method                                                  LBFGS
 OPT| Total energy [hartree]                                     -920.7697210879
 OPT| Effective energy change [hartree]                            -0.0001633756
 OPT| Decrease in energy                                                     YES
 OPT| Used time [s]                                                       48.743
 OPT|
 OPT| Maximum step size                                             0.0214110977
 OPT| Convergence limit for maximum step size                       0.0030000000
 OPT| Maximum step size is converged                                          NO
 OPT|
 OPT| RMS step size                                                 0.0022476938
 OPT| Convergence limit for RMS step size                           0.0015000000
 OPT| RMS step size is converged                                              NO
 OPT|
 OPT| Maximum gradient                                              0.0055306611
 OPT| Convergence limit for maximum gradient                        0.0010000000
 OPT| Maximum gradient is converged                                           NO
 OPT|
 OPT| RMS gradient                                                  0.0006939348
 OPT| Convergence limit for RMS gradient                            0.0003000000
 OPT| RMS gradient is converged                                               NO
 OPT| **************************************************************************
 OPT| Estimated peak process memory after this step [MiB]                   1993

 --------------------------
 OPTIMIZATION STEP:    134
 --------------------------

 Number of electrons:                                                        416
 Number of occupied orbitals:                                                208
 Number of molecular orbitals:                                               208

 Number of orbital functions:                                                318
 Number of independent orbital functions:                                    318

 Extrapolation method: ASPC


 SCF WAVEFUNCTION OPTIMIZATION

  ----------------------------------- OT ---------------------------------------
  Minimizer      : DIIS                : direct inversion
                                         in the iterative subspace
                                         using   7 DIIS vectors
                                         safer DIIS on
  Preconditioner : FULL_SINGLE_INVERSE : inversion of 
                                         H + eS - 2*(Sc)(c^T*H*c+const)(Sc)^T
  Precond_solver : DEFAULT
  stepsize       :    0.08000000                  energy_gap     :    0.08000000
  eps_taylor     :   0.10000E-15                  max_taylor     :             4
  ----------------------------------- OT ---------------------------------------

  Step     Update method      Time    Convergence         Total energy    Change
  ------------------------------------------------------------------------------
     1 OT DIIS     0.80E-01    6.5     0.00033261      -920.7689550856 -9.21E+02
     2 OT DIIS     0.80E-01    7.8     0.00021279      -920.7694273188 -4.72E-04
     3 OT DIIS     0.80E-01    7.8     0.00007520      -920.7697476055 -3.20E-04
     4 OT DIIS     0.80E-01    7.9     0.00002388      -920.7697807665 -3.32E-05
     5 OT DIIS     0.80E-01    7.8     0.00000964      -920.7697838039 -3.04E-06

  *** SCF run converged in     5 steps ***


  Electronic density on regular grids:       -415.9999926747        0.0000073253
  Core density on regular grids:              415.9999999753       -0.0000000247
  Total charge density on r-space grids:        0.0000073006
  Total charge density g-space grids:           0.0000073006

  Overlap energy of the core charge distribution:               0.00000007589598
  Self energy of the core charge distribution:              -2388.37244906618980
  Core Hamiltonian energy:                                    696.85634567754880
  Hartree energy:                                             990.12250228842674
  Exchange-correlation energy:                               -219.37618277957594

  Total energy:                                              -920.76978380389437

 ENERGY| Total FORCE_EVAL ( QS ) energy [hartree]           -920.769784284979551

 OPT| **************************************************************************
 OPT| Step number                                                            134
 OPT| Optimization method                                                  LBFGS
 OPT| Total energy [hartree]                                     -920.7697842850
 OPT| Effective energy change [hartree]                            -0.0000631971
 OPT| Decrease in energy                                                     YES
 OPT| Used time [s]                                                       48.759
 OPT|
 OPT| Maximum step size                                             0.1028242718
 OPT| Convergence limit for maximum step size                       0.0030000000
 OPT| Maximum step size is converged                                          NO
 OPT|
 OPT| RMS step size                                                 0.0084608432
 OPT| Convergence limit for RMS step size                           0.0015000000
 OPT| RMS step size is converged                                              NO
 OPT|
 OPT| Maximum gradient                                              0.0090851689
 OPT| Convergence limit for maximum gradient                        0.0010000000
 OPT| Maximum gradient is converged                                           NO
 OPT|
 OPT| RMS gradient                                                  0.0009787870
 OPT| Convergence limit for RMS gradient                            0.0003000000
 OPT| RMS gradient is converged                                               NO
 OPT| **************************************************************************
 OPT| Estimated peak process memory after this step [MiB]                   1993

 --------------------------
 OPTIMIZATION STEP:    135
 --------------------------

 Number of electrons:                                                        416
 Number of occupied orbitals:                                                208
 Number of molecular orbitals:                                               208

 Number of orbital functions:                                                318
 Number of independent orbital functions:                                    318

 Extrapolation method: ASPC


 SCF WAVEFUNCTION OPTIMIZATION

  ----------------------------------- OT ---------------------------------------
  Minimizer      : DIIS                : direct inversion
                                         in the iterative subspace
                                         using   7 DIIS vectors
                                         safer DIIS on
  Preconditioner : FULL_SINGLE_INVERSE : inversion of 
                                         H + eS - 2*(Sc)(c^T*H*c+const)(Sc)^T
  Precond_solver : DEFAULT
  stepsize       :    0.08000000                  energy_gap     :    0.08000000
  eps_taylor     :   0.10000E-15                  max_taylor     :             4
  ----------------------------------- OT ---------------------------------------

  Step     Update method      Time    Convergence         Total energy    Change
  ------------------------------------------------------------------------------
     1 OT DIIS     0.80E-01    6.5     0.00071425      -920.7661961903 -9.21E+02
     2 OT DIIS     0.80E-01    7.8     0.00045850      -920.7683761900 -2.18E-03
     3 OT DIIS     0.80E-01    7.8     0.00016438      -920.7698654514 -1.49E-03
     4 OT DIIS     0.80E-01    7.8     0.00004698      -920.7700190548 -1.54E-04
     5 OT DIIS     0.80E-01    7.8     0.00002044      -920.7700308149 -1.18E-05
     6 OT DIIS     0.80E-01    7.8     0.00000983      -920.7700328599 -2.05E-06

  *** SCF run converged in     6 steps ***


  Electronic density on regular grids:       -415.9999926025        0.0000073975
  Core density on regular grids:              415.9999999753       -0.0000000247
  Total charge density on r-space grids:        0.0000073727
  Total charge density g-space grids:           0.0000073727

  Overlap energy of the core charge distribution:               0.00000007775017
  Self energy of the core charge distribution:              -2388.37244906618980
  Core Hamiltonian energy:                                    696.88184380164887
  Hartree energy:                                             990.10471199648248
  Exchange-correlation energy:                               -219.38413966962847

  Total energy:                                              -920.77003285993703

 ENERGY| Total FORCE_EVAL ( QS ) energy [hartree]           -920.770033479188442

 OPT| **************************************************************************
 OPT| Step number                                                            135
 OPT| Optimization method                                                  LBFGS
 OPT| Total energy [hartree]                                     -920.7700334792
 OPT| Effective energy change [hartree]                            -0.0002491942
 OPT| Decrease in energy                                                     YES
 OPT| Used time [s]                                                       56.547
 OPT|
 OPT| Maximum step size                                             0.0602823180
 OPT| Convergence limit for maximum step size                       0.0030000000
 OPT| Maximum step size is converged                                          NO
 OPT|
 OPT| RMS step size                                                 0.0055201613
 OPT| Convergence limit for RMS step size                           0.0015000000
 OPT| RMS step size is converged                                              NO
 OPT|
 OPT| Maximum gradient                                              0.0027302490
 OPT| Convergence limit for maximum gradient                        0.0010000000
 OPT| Maximum gradient is converged                                           NO
 OPT|
 OPT| RMS gradient                                                  0.0005922281
 OPT| Convergence limit for RMS gradient                            0.0003000000
 OPT| RMS gradient is converged                                               NO
 OPT| **************************************************************************
 OPT| Estimated peak process memory after this step [MiB]                   1993

 --------------------------
 OPTIMIZATION STEP:    136
 --------------------------

 Number of electrons:                                                        416
 Number of occupied orbitals:                                                208
 Number of molecular orbitals:                                               208

 Number of orbital functions:                                                318
 Number of independent orbital functions:                                    318

 Extrapolation method: ASPC


 SCF WAVEFUNCTION OPTIMIZATION

  ----------------------------------- OT ---------------------------------------
  Minimizer      : DIIS                : direct inversion
                                         in the iterative subspace
                                         using   7 DIIS vectors
                                         safer DIIS on
  Preconditioner : FULL_SINGLE_INVERSE : inversion of 
                                         H + eS - 2*(Sc)(c^T*H*c+const)(Sc)^T
  Precond_solver : DEFAULT
  stepsize       :    0.08000000                  energy_gap     :    0.08000000
  eps_taylor     :   0.10000E-15                  max_taylor     :             4
  ----------------------------------- OT ---------------------------------------

  Step     Update method      Time    Convergence         Total energy    Change
  ------------------------------------------------------------------------------
     1 OT DIIS     0.80E-01    6.5     0.00072111      -920.7661888571 -9.21E+02
     2 OT DIIS     0.80E-01    7.8     0.00046426      -920.7684231075 -2.23E-03
     3 OT DIIS     0.80E-01    7.9     0.00014496      -920.7699915352 -1.57E-03
     4 OT DIIS     0.80E-01    7.8     0.00004804      -920.7701057122 -1.14E-04
     5 OT DIIS     0.80E-01    7.8     0.00001976      -920.7701173684 -1.17E-05
     6 OT DIIS     0.80E-01    7.9     0.00000909      -920.7701195036 -2.14E-06

  *** SCF run converged in     6 steps ***


  Electronic density on regular grids:       -415.9999925903        0.0000074097
  Core density on regular grids:              415.9999999753       -0.0000000247
  Total charge density on r-space grids:        0.0000073849
  Total charge density g-space grids:           0.0000073849

  Overlap energy of the core charge distribution:               0.00000007762503
  Self energy of the core charge distribution:              -2388.37244906618980
  Core Hamiltonian energy:                                    696.87974304108570
  Hartree energy:                                             990.10630085231981
  Exchange-correlation energy:                               -219.38371440841166

  Total energy:                                              -920.77011950357110

 ENERGY| Total FORCE_EVAL ( QS ) energy [hartree]           -920.770120011382801

 OPT| **************************************************************************
 OPT| Step number                                                            136
 OPT| Optimization method                                                  LBFGS
 OPT| Total energy [hartree]                                     -920.7701200114
 OPT| Effective energy change [hartree]                            -0.0000865322
 OPT| Decrease in energy                                                     YES
 OPT| Used time [s]                                                       56.593
 OPT|
 OPT| Maximum step size                                             0.0068783534
 OPT| Convergence limit for maximum step size                       0.0030000000
 OPT| Maximum step size is converged                                          NO
 OPT|
 OPT| RMS step size                                                 0.0010240782
 OPT| Convergence limit for RMS step size                           0.0015000000
 OPT| RMS step size is converged                                             YES
 OPT|
 OPT| Maximum gradient                                              0.0021337588
 OPT| Convergence limit for maximum gradient                        0.0010000000
 OPT| Maximum gradient is converged                                           NO
 OPT|
 OPT| RMS gradient                                                  0.0003630926
 OPT| Convergence limit for RMS gradient                            0.0003000000
 OPT| RMS gradient is converged                                               NO
 OPT| **************************************************************************
 OPT| Estimated peak process memory after this step [MiB]                   1993

 --------------------------
 OPTIMIZATION STEP:    137
 --------------------------

 Number of electrons:                                                        416
 Number of occupied orbitals:                                                208
 Number of molecular orbitals:                                               208

 Number of orbital functions:                                                318
 Number of independent orbital functions:                                    318

 Extrapolation method: ASPC


 SCF WAVEFUNCTION OPTIMIZATION

  ----------------------------------- OT ---------------------------------------
  Minimizer      : DIIS                : direct inversion
                                         in the iterative subspace
                                         using   7 DIIS vectors
                                         safer DIIS on
  Preconditioner : FULL_SINGLE_INVERSE : inversion of 
                                         H + eS - 2*(Sc)(c^T*H*c+const)(Sc)^T
  Precond_solver : DEFAULT
  stepsize       :    0.08000000                  energy_gap     :    0.08000000
  eps_taylor     :   0.10000E-15                  max_taylor     :             4
  ----------------------------------- OT ---------------------------------------

  Step     Update method      Time    Convergence         Total energy    Change
  ------------------------------------------------------------------------------
     1 OT DIIS     0.80E-01    6.5     0.00040542      -920.7689717888 -9.21E+02
     2 OT DIIS     0.80E-01    7.9     0.00025761      -920.7696700488 -6.98E-04
     3 OT DIIS     0.80E-01    7.8     0.00009580      -920.7701291275 -4.59E-04
     4 OT DIIS     0.80E-01    7.8     0.00002805      -920.7701817484 -5.26E-05
     5 OT DIIS     0.80E-01    7.9     0.00001180      -920.7701858505 -4.10E-06
     6 OT DIIS     0.80E-01    7.8     0.00000546      -920.7701865707 -7.20E-07

  *** SCF run converged in     6 steps ***


  Electronic density on regular grids:       -415.9999925610        0.0000074390
  Core density on regular grids:              415.9999999753       -0.0000000247
  Total charge density on r-space grids:        0.0000074143
  Total charge density g-space grids:           0.0000074143

  Overlap energy of the core charge distribution:               0.00000007788402
  Self energy of the core charge distribution:              -2388.37244906618980
  Core Hamiltonian energy:                                    696.88115618919198
  Hartree energy:                                             990.10546038998302
  Exchange-correlation energy:                               -219.38435416158870

  Total energy:                                              -920.77018657071926

 ENERGY| Total FORCE_EVAL ( QS ) energy [hartree]           -920.770186757703186

 OPT| **************************************************************************
 OPT| Step number                                                            137
 OPT| Optimization method                                                  LBFGS
 OPT| Total energy [hartree]                                     -920.7701867577
 OPT| Effective energy change [hartree]                            -0.0000667463
 OPT| Decrease in energy                                                     YES
 OPT| Used time [s]                                                       56.577
 OPT|
 OPT| Maximum step size                                             0.0067108074
 OPT| Convergence limit for maximum step size                       0.0030000000
 OPT| Maximum step size is converged                                          NO
 OPT|
 OPT| RMS step size                                                 0.0012997773
 OPT| Convergence limit for RMS step size                           0.0015000000
 OPT| RMS step size is converged                                             YES
 OPT|
 OPT| Maximum gradient                                              0.0018106013
 OPT| Convergence limit for maximum gradient                        0.0010000000
 OPT| Maximum gradient is converged                                           NO
 OPT|
 OPT| RMS gradient                                                  0.0002851761
 OPT| Convergence limit for RMS gradient                            0.0003000000
 OPT| RMS gradient is converged                                              YES
 OPT| **************************************************************************
 OPT| Estimated peak process memory after this step [MiB]                   1993

 --------------------------
 OPTIMIZATION STEP:    138
 --------------------------

 Number of electrons:                                                        416
 Number of occupied orbitals:                                                208
 Number of molecular orbitals:                                               208

 Number of orbital functions:                                                318
 Number of independent orbital functions:                                    318

 Extrapolation method: ASPC


 SCF WAVEFUNCTION OPTIMIZATION

  ----------------------------------- OT ---------------------------------------
  Minimizer      : DIIS                : direct inversion
                                         in the iterative subspace
                                         using   7 DIIS vectors
                                         safer DIIS on
  Preconditioner : FULL_SINGLE_INVERSE : inversion of 
                                         H + eS - 2*(Sc)(c^T*H*c+const)(Sc)^T
  Precond_solver : DEFAULT
  stepsize       :    0.08000000                  energy_gap     :    0.08000000
  eps_taylor     :   0.10000E-15                  max_taylor     :             4
  ----------------------------------- OT ---------------------------------------

  Step     Update method      Time    Convergence         Total energy    Change
  ------------------------------------------------------------------------------
     1 OT DIIS     0.80E-01    6.5     0.00013050      -920.7701220001 -9.21E+02
     2 OT DIIS     0.80E-01    7.8     0.00008073      -920.7701927825 -7.08E-05
     3 OT DIIS     0.80E-01    7.8     0.00003530      -920.7702339368 -4.12E-05
     4 OT DIIS     0.80E-01    7.9     0.00000946      -920.7702415403 -7.60E-06

  *** SCF run converged in     4 steps ***


  Electronic density on regular grids:       -415.9999925239        0.0000074761
  Core density on regular grids:              415.9999999752       -0.0000000248
  Total charge density on r-space grids:        0.0000074513
  Total charge density g-space grids:           0.0000074513

  Overlap energy of the core charge distribution:               0.00000007765933
  Self energy of the core charge distribution:              -2388.37244906618980
  Core Hamiltonian energy:                                    696.87300572805452
  Hartree energy:                                             990.11147767245302
  Exchange-correlation energy:                               -219.38227595232115

  Total energy:                                              -920.77024154034393

 ENERGY| Total FORCE_EVAL ( QS ) energy [hartree]           -920.770242044682391

 OPT| **************************************************************************
 OPT| Step number                                                            138
 OPT| Optimization method                                                  LBFGS
 OPT| Total energy [hartree]                                     -920.7702420447
 OPT| Effective energy change [hartree]                            -0.0000552870
 OPT| Decrease in energy                                                     YES
 OPT| Used time [s]                                                       40.882
 OPT|
 OPT| Maximum step size                                             0.0121299920
 OPT| Convergence limit for maximum step size                       0.0030000000
 OPT| Maximum step size is converged                                          NO
 OPT|
 OPT| RMS step size                                                 0.0016116081
 OPT| Convergence limit for RMS step size                           0.0015000000
 OPT| RMS step size is converged                                              NO
 OPT|
 OPT| Maximum gradient                                              0.0015902264
 OPT| Convergence limit for maximum gradient                        0.0010000000
 OPT| Maximum gradient is converged                                           NO
 OPT|
 OPT| RMS gradient                                                  0.0002785485
 OPT| Convergence limit for RMS gradient                            0.0003000000
 OPT| RMS gradient is converged                                              YES
 OPT| **************************************************************************
 OPT| Estimated peak process memory after this step [MiB]                   1993

 --------------------------
 OPTIMIZATION STEP:    139
 --------------------------

 Number of electrons:                                                        416
 Number of occupied orbitals:                                                208
 Number of molecular orbitals:                                               208

 Number of orbital functions:                                                318
 Number of independent orbital functions:                                    318

 Extrapolation method: ASPC


 SCF WAVEFUNCTION OPTIMIZATION

  ----------------------------------- OT ---------------------------------------
  Minimizer      : DIIS                : direct inversion
                                         in the iterative subspace
                                         using   7 DIIS vectors
                                         safer DIIS on
  Preconditioner : FULL_SINGLE_INVERSE : inversion of 
                                         H + eS - 2*(Sc)(c^T*H*c+const)(Sc)^T
  Precond_solver : DEFAULT
  stepsize       :    0.08000000                  energy_gap     :    0.08000000
  eps_taylor     :   0.10000E-15                  max_taylor     :             4
  ----------------------------------- OT ---------------------------------------

  Step     Update method      Time    Convergence         Total energy    Change
  ------------------------------------------------------------------------------
     1 OT DIIS     0.80E-01    6.5     0.00006659      -920.7702505877 -9.21E+02
     2 OT DIIS     0.80E-01    7.8     0.00003506      -920.7702669544 -1.64E-05
     3 OT DIIS     0.80E-01    7.8     0.00001895      -920.7702726910 -5.74E-06
     4 OT DIIS     0.80E-01    7.9     0.00000638      -920.7702748279 -2.14E-06

  *** SCF run converged in     4 steps ***


  Electronic density on regular grids:       -415.9999924868        0.0000075132
  Core density on regular grids:              415.9999999752       -0.0000000248
  Total charge density on r-space grids:        0.0000074884
  Total charge density g-space grids:           0.0000074884

  Overlap energy of the core charge distribution:               0.00000007819607
  Self energy of the core charge distribution:              -2388.37244906618980
  Core Hamiltonian energy:                                    696.86414172419052
  Hartree energy:                                             990.11874504650541
  Exchange-correlation energy:                               -219.38071261058525

  Total energy:                                              -920.77027482788299

 ENERGY| Total FORCE_EVAL ( QS ) energy [hartree]           -920.770275072619597

 OPT| **************************************************************************
 OPT| Step number                                                            139
 OPT| Optimization method                                                  LBFGS
 OPT| Total energy [hartree]                                     -920.7702750726
 OPT| Effective energy change [hartree]                            -0.0000330279
 OPT| Decrease in energy                                                     YES
 OPT| Used time [s]                                                       40.869
 OPT|
 OPT| Maximum step size                                             0.0192527000
 OPT| Convergence limit for maximum step size                       0.0030000000
 OPT| Maximum step size is converged                                          NO
 OPT|
 OPT| RMS step size                                                 0.0022332184
 OPT| Convergence limit for RMS step size                           0.0015000000
 OPT| RMS step size is converged                                              NO
 OPT|
 OPT| Maximum gradient                                              0.0018425078
 OPT| Convergence limit for maximum gradient                        0.0010000000
 OPT| Maximum gradient is converged                                           NO
 OPT|
 OPT| RMS gradient                                                  0.0004179201
 OPT| Convergence limit for RMS gradient                            0.0003000000
 OPT| RMS gradient is converged                                               NO
 OPT| **************************************************************************
 OPT| Estimated peak process memory after this step [MiB]                   1993

 --------------------------
 OPTIMIZATION STEP:    140
 --------------------------

 Number of electrons:                                                        416
 Number of occupied orbitals:                                                208
 Number of molecular orbitals:                                               208

 Number of orbital functions:                                                318
 Number of independent orbital functions:                                    318

 Extrapolation method: ASPC


 SCF WAVEFUNCTION OPTIMIZATION

  ----------------------------------- OT ---------------------------------------
  Minimizer      : DIIS                : direct inversion
                                         in the iterative subspace
                                         using   7 DIIS vectors
                                         safer DIIS on
  Preconditioner : FULL_SINGLE_INVERSE : inversion of 
                                         H + eS - 2*(Sc)(c^T*H*c+const)(Sc)^T
  Precond_solver : DEFAULT
  stepsize       :    0.08000000                  energy_gap     :    0.08000000
  eps_taylor     :   0.10000E-15                  max_taylor     :             4
  ----------------------------------- OT ---------------------------------------

  Step     Update method      Time    Convergence         Total energy    Change
  ------------------------------------------------------------------------------
     1 OT DIIS     0.80E-01    6.5     0.00011050      -920.7702463443 -9.21E+02
     2 OT DIIS     0.80E-01    7.8     0.00005783      -920.7702926155 -4.63E-05
     3 OT DIIS     0.80E-01    7.8     0.00002817      -920.7703097778 -1.72E-05
     4 OT DIIS     0.80E-01    7.8     0.00001035      -920.7703145402 -4.76E-06
     5 OT DIIS     0.80E-01    7.8     0.00000408      -920.7703152145 -6.74E-07

  *** SCF run converged in     5 steps ***


  Electronic density on regular grids:       -415.9999924735        0.0000075265
  Core density on regular grids:              415.9999999752       -0.0000000248
  Total charge density on r-space grids:        0.0000075017
  Total charge density g-space grids:           0.0000075017

  Overlap energy of the core charge distribution:               0.00000007787306
  Self energy of the core charge distribution:              -2388.37244906618980
  Core Hamiltonian energy:                                    696.85990260911910
  Hartree energy:                                             990.12159969288280
  Exchange-correlation energy:                               -219.37936852817640

  Total energy:                                              -920.77031521449101

 ENERGY| Total FORCE_EVAL ( QS ) energy [hartree]           -920.770315306813018

 OPT| **************************************************************************
 OPT| Step number                                                            140
 OPT| Optimization method                                                  LBFGS
 OPT| Total energy [hartree]                                     -920.7703153068
 OPT| Effective energy change [hartree]                            -0.0000402342
 OPT| Decrease in energy                                                     YES
 OPT| Used time [s]                                                       48.693
 OPT|
 OPT| Maximum step size                                             0.0045662284
 OPT| Convergence limit for maximum step size                       0.0030000000
 OPT| Maximum step size is converged                                          NO
 OPT|
 OPT| RMS step size                                                 0.0006680169
 OPT| Convergence limit for RMS step size                           0.0015000000
 OPT| RMS step size is converged                                             YES
 OPT|
 OPT| Maximum gradient                                              0.0018472213
 OPT| Convergence limit for maximum gradient                        0.0010000000
 OPT| Maximum gradient is converged                                           NO
 OPT|
 OPT| RMS gradient                                                  0.0002300628
 OPT| Convergence limit for RMS gradient                            0.0003000000
 OPT| RMS gradient is converged                                              YES
 OPT| **************************************************************************
 OPT| Estimated peak process memory after this step [MiB]                   1993

 --------------------------
 OPTIMIZATION STEP:    141
 --------------------------

 Number of electrons:                                                        416
 Number of occupied orbitals:                                                208
 Number of molecular orbitals:                                               208

 Number of orbital functions:                                                318
 Number of independent orbital functions:                                    318

 Extrapolation method: ASPC


 SCF WAVEFUNCTION OPTIMIZATION

  ----------------------------------- OT ---------------------------------------
  Minimizer      : DIIS                : direct inversion
                                         in the iterative subspace
                                         using   7 DIIS vectors
                                         safer DIIS on
  Preconditioner : FULL_SINGLE_INVERSE : inversion of 
                                         H + eS - 2*(Sc)(c^T*H*c+const)(Sc)^T
  Precond_solver : DEFAULT
  stepsize       :    0.08000000                  energy_gap     :    0.08000000
  eps_taylor     :   0.10000E-15                  max_taylor     :             4
  ----------------------------------- OT ---------------------------------------

  Step     Update method      Time    Convergence         Total energy    Change
  ------------------------------------------------------------------------------
     1 OT DIIS     0.80E-01    6.5     0.00009901      -920.7702925263 -9.21E+02
     2 OT DIIS     0.80E-01    7.8     0.00005293      -920.7703300770 -3.76E-05
     3 OT DIIS     0.80E-01    7.8     0.00002578      -920.7703446376 -1.46E-05
     4 OT DIIS     0.80E-01    7.8     0.00000932      -920.7703485408 -3.90E-06

  *** SCF run converged in     4 steps ***


  Electronic density on regular grids:       -415.9999924550        0.0000075450
  Core density on regular grids:              415.9999999752       -0.0000000248
  Total charge density on r-space grids:        0.0000075203
  Total charge density g-space grids:           0.0000075203

  Overlap energy of the core charge distribution:               0.00000007762614
  Self energy of the core charge distribution:              -2388.37244906618980
  Core Hamiltonian energy:                                    696.85476161954057
  Hartree energy:                                             990.12511789852260
  Exchange-correlation energy:                               -219.37777907034845

  Total energy:                                              -920.77034854084877

 ENERGY| Total FORCE_EVAL ( QS ) energy [hartree]           -920.770349066259769

 OPT| **************************************************************************
 OPT| Step number                                                            141
 OPT| Optimization method                                                  LBFGS
 OPT| Total energy [hartree]                                     -920.7703490663
 OPT| Effective energy change [hartree]                            -0.0000337594
 OPT| Decrease in energy                                                     YES
 OPT| Used time [s]                                                       40.825
 OPT|
 OPT| Maximum step size                                             0.0083356196
 OPT| Convergence limit for maximum step size                       0.0030000000
 OPT| Maximum step size is converged                                          NO
 OPT|
 OPT| RMS step size                                                 0.0011476824
 OPT| Convergence limit for RMS step size                           0.0015000000
 OPT| RMS step size is converged                                             YES
 OPT|
 OPT| Maximum gradient                                              0.0013674893
 OPT| Convergence limit for maximum gradient                        0.0010000000
 OPT| Maximum gradient is converged                                           NO
 OPT|
 OPT| RMS gradient                                                  0.0002022227
 OPT| Convergence limit for RMS gradient                            0.0003000000
 OPT| RMS gradient is converged                                              YES
 OPT| **************************************************************************
 OPT| Estimated peak process memory after this step [MiB]                   1993

 --------------------------
 OPTIMIZATION STEP:    142
 --------------------------

 Number of electrons:                                                        416
 Number of occupied orbitals:                                                208
 Number of molecular orbitals:                                               208

 Number of orbital functions:                                                318
 Number of independent orbital functions:                                    318

 Extrapolation method: ASPC


 SCF WAVEFUNCTION OPTIMIZATION

  ----------------------------------- OT ---------------------------------------
  Minimizer      : DIIS                : direct inversion
                                         in the iterative subspace
                                         using   7 DIIS vectors
                                         safer DIIS on
  Preconditioner : FULL_SINGLE_INVERSE : inversion of 
                                         H + eS - 2*(Sc)(c^T*H*c+const)(Sc)^T
  Precond_solver : DEFAULT
  stepsize       :    0.08000000                  energy_gap     :    0.08000000
  eps_taylor     :   0.10000E-15                  max_taylor     :             4
  ----------------------------------- OT ---------------------------------------

  Step     Update method      Time    Convergence         Total energy    Change
  ------------------------------------------------------------------------------
     1 OT DIIS     0.80E-01    6.5     0.00006060      -920.7703492743 -9.21E+02
     2 OT DIIS     0.80E-01    7.8     0.00003262      -920.7703634736 -1.42E-05
     3 OT DIIS     0.80E-01    7.8     0.00001525      -920.7703691273 -5.65E-06
     4 OT DIIS     0.80E-01    7.8     0.00000539      -920.7703704601 -1.33E-06

  *** SCF run converged in     4 steps ***


  Electronic density on regular grids:       -415.9999924403        0.0000075597
  Core density on regular grids:              415.9999999752       -0.0000000248
  Total charge density on r-space grids:        0.0000075349
  Total charge density g-space grids:           0.0000075349

  Overlap energy of the core charge distribution:               0.00000007759023
  Self energy of the core charge distribution:              -2388.37244906618980
  Core Hamiltonian energy:                                    696.85596973745385
  Hartree energy:                                             990.12404719736651
  Exchange-correlation energy:                               -219.37793840629723

  Total energy:                                              -920.77037046007626

 ENERGY| Total FORCE_EVAL ( QS ) energy [hartree]           -920.770370633879566

 OPT| **************************************************************************
 OPT| Step number                                                            142
 OPT| Optimization method                                                  LBFGS
 OPT| Total energy [hartree]                                     -920.7703706339
 OPT| Effective energy change [hartree]                            -0.0000215676
 OPT| Decrease in energy                                                     YES
 OPT| Used time [s]                                                       40.794
 OPT|
 OPT| Maximum step size                                             0.0079263817
 OPT| Convergence limit for maximum step size                       0.0030000000
 OPT| Maximum step size is converged                                          NO
 OPT|
 OPT| RMS step size                                                 0.0008410942
 OPT| Convergence limit for RMS step size                           0.0015000000
 OPT| RMS step size is converged                                             YES
 OPT|
 OPT| Maximum gradient                                              0.0008130784
 OPT| Convergence limit for maximum gradient                        0.0010000000
 OPT| Maximum gradient is converged                                          YES
 OPT|
 OPT| RMS gradient                                                  0.0001441943
 OPT| Convergence limit for RMS gradient                            0.0003000000
 OPT| RMS gradient is converged                                              YES
 OPT| **************************************************************************
 OPT| Estimated peak process memory after this step [MiB]                   1993

 --------------------------
 OPTIMIZATION STEP:    143
 --------------------------

 Number of electrons:                                                        416
 Number of occupied orbitals:                                                208
 Number of molecular orbitals:                                               208

 Number of orbital functions:                                                318
 Number of independent orbital functions:                                    318

 Extrapolation method: ASPC


 SCF WAVEFUNCTION OPTIMIZATION

  ----------------------------------- OT ---------------------------------------
  Minimizer      : DIIS                : direct inversion
                                         in the iterative subspace
                                         using   7 DIIS vectors
                                         safer DIIS on
  Preconditioner : FULL_SINGLE_INVERSE : inversion of 
                                         H + eS - 2*(Sc)(c^T*H*c+const)(Sc)^T
  Precond_solver : DEFAULT
  stepsize       :    0.08000000                  energy_gap     :    0.08000000
  eps_taylor     :   0.10000E-15                  max_taylor     :             4
  ----------------------------------- OT ---------------------------------------

  Step     Update method      Time    Convergence         Total energy    Change
  ------------------------------------------------------------------------------
     1 OT DIIS     0.80E-01    6.5     0.00004492      -920.7703643132 -9.21E+02
     2 OT DIIS     0.80E-01    7.8     0.00002318      -920.7703718522 -7.54E-06
     3 OT DIIS     0.80E-01    7.8     0.00001147      -920.7703744627 -2.61E-06
     4 OT DIIS     0.80E-01    7.8     0.00000387      -920.7703751985 -7.36E-07

  *** SCF run converged in     4 steps ***


  Electronic density on regular grids:       -415.9999924172        0.0000075828
  Core density on regular grids:              415.9999999753       -0.0000000247
  Total charge density on r-space grids:        0.0000075580
  Total charge density g-space grids:           0.0000075580

  Overlap energy of the core charge distribution:               0.00000007775765
  Self energy of the core charge distribution:              -2388.37244906618980
  Core Hamiltonian energy:                                    696.85743655414240
  Hartree energy:                                             990.12296889879815
  Exchange-correlation energy:                               -219.37833166298225

  Total energy:                                              -920.77037519847386

 ENERGY| Total FORCE_EVAL ( QS ) energy [hartree]           -920.770375284464649

 OPT| **************************************************************************
 OPT| Step number                                                            143
 OPT| Optimization method                                                  LBFGS
 OPT| Total energy [hartree]                                     -920.7703752845
 OPT| Effective energy change [hartree]                            -0.0000046506
 OPT| Decrease in energy                                                     YES
 OPT| Used time [s]                                                       40.817
 OPT|
 OPT| Maximum step size                                             0.0097400659
 OPT| Convergence limit for maximum step size                       0.0030000000
 OPT| Maximum step size is converged                                          NO
 OPT|
 OPT| RMS step size                                                 0.0011540435
 OPT| Convergence limit for RMS step size                           0.0015000000
 OPT| RMS step size is converged                                             YES
 OPT|
 OPT| Maximum gradient                                              0.0014389251
 OPT| Convergence limit for maximum gradient                        0.0010000000
 OPT| Maximum gradient is converged                                           NO
 OPT|
 OPT| RMS gradient                                                  0.0002509530
 OPT| Convergence limit for RMS gradient                            0.0003000000
 OPT| RMS gradient is converged                                              YES
 OPT| **************************************************************************
 OPT| Estimated peak process memory after this step [MiB]                   1993

 --------------------------
 OPTIMIZATION STEP:    144
 --------------------------

 Number of electrons:                                                        416
 Number of occupied orbitals:                                                208
 Number of molecular orbitals:                                               208

 Number of orbital functions:                                                318
 Number of independent orbital functions:                                    318

 Extrapolation method: ASPC


 SCF WAVEFUNCTION OPTIMIZATION

  ----------------------------------- OT ---------------------------------------
  Minimizer      : DIIS                : direct inversion
                                         in the iterative subspace
                                         using   7 DIIS vectors
                                         safer DIIS on
  Preconditioner : FULL_SINGLE_INVERSE : inversion of 
                                         H + eS - 2*(Sc)(c^T*H*c+const)(Sc)^T
  Precond_solver : DEFAULT
  stepsize       :    0.08000000                  energy_gap     :    0.08000000
  eps_taylor     :   0.10000E-15                  max_taylor     :             4
  ----------------------------------- OT ---------------------------------------

  Step     Update method      Time    Convergence         Total energy    Change
  ------------------------------------------------------------------------------
     1 OT DIIS     0.80E-01    6.5     0.00008142      -920.7703488527 -9.21E+02
     2 OT DIIS     0.80E-01    7.8     0.00004389      -920.7703738952 -2.50E-05
     3 OT DIIS     0.80E-01    7.8     0.00002309      -920.7703833529 -9.46E-06
     4 OT DIIS     0.80E-01    7.8     0.00000758      -920.7703865097 -3.16E-06

  *** SCF run converged in     4 steps ***


  Electronic density on regular grids:       -415.9999924188        0.0000075812
  Core density on regular grids:              415.9999999753       -0.0000000247
  Total charge density on r-space grids:        0.0000075565
  Total charge density g-space grids:           0.0000075565

  Overlap energy of the core charge distribution:               0.00000007776747
  Self energy of the core charge distribution:              -2388.37244906618980
  Core Hamiltonian energy:                                    696.85933754654229
  Hartree energy:                                             990.12148241448995
  Exchange-correlation energy:                               -219.37875748229067

  Total energy:                                              -920.77038650968097

 ENERGY| Total FORCE_EVAL ( QS ) energy [hartree]           -920.770386858579059

 OPT| **************************************************************************
 OPT| Step number                                                            144
 OPT| Optimization method                                                  LBFGS
 OPT| Total energy [hartree]                                     -920.7703868586
 OPT| Effective energy change [hartree]                            -0.0000115741
 OPT| Decrease in energy                                                     YES
 OPT| Used time [s]                                                       40.840
 OPT|
 OPT| Maximum step size                                             0.0038127010
 OPT| Convergence limit for maximum step size                       0.0030000000
 OPT| Maximum step size is converged                                          NO
 OPT|
 OPT| RMS step size                                                 0.0004437103
 OPT| Convergence limit for RMS step size                           0.0015000000
 OPT| RMS step size is converged                                             YES
 OPT|
 OPT| Maximum gradient                                              0.0004113154
 OPT| Convergence limit for maximum gradient                        0.0010000000
 OPT| Maximum gradient is converged                                          YES
 OPT|
 OPT| RMS gradient                                                  0.0000771979
 OPT| Convergence limit for RMS gradient                            0.0003000000
 OPT| RMS gradient is converged                                              YES
 OPT| **************************************************************************
 OPT| Estimated peak process memory after this step [MiB]                   1993

 --------------------------
 OPTIMIZATION STEP:    145
 --------------------------

 Number of electrons:                                                        416
 Number of occupied orbitals:                                                208
 Number of molecular orbitals:                                               208

 Number of orbital functions:                                                318
 Number of independent orbital functions:                                    318

 Extrapolation method: ASPC


 SCF WAVEFUNCTION OPTIMIZATION

  ----------------------------------- OT ---------------------------------------
  Minimizer      : DIIS                : direct inversion
                                         in the iterative subspace
                                         using   7 DIIS vectors
                                         safer DIIS on
  Preconditioner : FULL_SINGLE_INVERSE : inversion of 
                                         H + eS - 2*(Sc)(c^T*H*c+const)(Sc)^T
  Precond_solver : DEFAULT
  stepsize       :    0.08000000                  energy_gap     :    0.08000000
  eps_taylor     :   0.10000E-15                  max_taylor     :             4
  ----------------------------------- OT ---------------------------------------

  Step     Update method      Time    Convergence         Total energy    Change
  ------------------------------------------------------------------------------
     1 OT DIIS     0.80E-01    6.5     0.00007602      -920.7703567438 -9.21E+02
     2 OT DIIS     0.80E-01    7.8     0.00003998      -920.7703786658 -2.19E-05
     3 OT DIIS     0.80E-01    7.8     0.00001941      -920.7703867588 -8.09E-06
     4 OT DIIS     0.80E-01    7.8     0.00000670      -920.7703889192 -2.16E-06

  *** SCF run converged in     4 steps ***


  Electronic density on regular grids:       -415.9999924171        0.0000075829
  Core density on regular grids:              415.9999999753       -0.0000000247
  Total charge density on r-space grids:        0.0000075581
  Total charge density g-space grids:           0.0000075581

  Overlap energy of the core charge distribution:               0.00000007776309
  Self energy of the core charge distribution:              -2388.37244906618980
  Core Hamiltonian energy:                                    696.86028377343791
  Hartree energy:                                             990.12076011415797
  Exchange-correlation energy:                               -219.37898381840787

  Total energy:                                              -920.77038891923860

 ENERGY| Total FORCE_EVAL ( QS ) energy [hartree]           -920.770389186717580

 OPT| **************************************************************************
 OPT| Step number                                                            145
 OPT| Optimization method                                                  LBFGS
 OPT| Total energy [hartree]                                     -920.7703891867
 OPT| Effective energy change [hartree]                            -0.0000023281
 OPT| Decrease in energy                                                     YES
 OPT| Used time [s]                                                       40.860
 OPT|
 OPT| Maximum step size                                             0.0008377222
 OPT| Convergence limit for maximum step size                       0.0030000000
 OPT| Maximum step size is converged                                         YES
 OPT|
 OPT| RMS step size                                                 0.0001584138
 OPT| Convergence limit for RMS step size                           0.0015000000
 OPT| RMS step size is converged                                             YES
 OPT|
 OPT| Maximum gradient                                              0.0003344578
 OPT| Convergence limit for maximum gradient                        0.0010000000
 OPT| Maximum gradient is converged                                          YES
 OPT|
 OPT| RMS gradient                                                  0.0000630332
 OPT| Convergence limit for RMS gradient                            0.0003000000
 OPT| RMS gradient is converged                                              YES
 OPT| **************************************************************************
 OPT| Estimated peak process memory after this step [MiB]                   1993

 *******************************************************************************
 ***                    GEOMETRY OPTIMIZATION COMPLETED                      ***
 *******************************************************************************

                    Reevaluating energy at the minimum

 Number of electrons:                                                        416
 Number of occupied orbitals:                                                208
 Number of molecular orbitals:                                               208

 Number of orbital functions:                                                318
 Number of independent orbital functions:                                    318

 Extrapolation method: ASPC


 SCF WAVEFUNCTION OPTIMIZATION

  ----------------------------------- OT ---------------------------------------
  Minimizer      : DIIS                : direct inversion
                                         in the iterative subspace
                                         using   7 DIIS vectors
                                         safer DIIS on
  Preconditioner : FULL_SINGLE_INVERSE : inversion of 
                                         H + eS - 2*(Sc)(c^T*H*c+const)(Sc)^T
  Precond_solver : DEFAULT
  stepsize       :    0.08000000                  energy_gap     :    0.08000000
  eps_taylor     :   0.10000E-15                  max_taylor     :             4
  ----------------------------------- OT ---------------------------------------

  Step     Update method      Time    Convergence         Total energy    Change
  ------------------------------------------------------------------------------
     1 OT DIIS     0.80E-01    6.5     0.00003801      -920.7703819638 -9.21E+02
     2 OT DIIS     0.80E-01    7.8     0.00001816      -920.7703872959 -5.33E-06
     3 OT DIIS     0.80E-01    7.8     0.00000763      -920.7703888890 -1.59E-06

  *** SCF run converged in     3 steps ***


  Electronic density on regular grids:       -415.9999924171        0.0000075829
  Core density on regular grids:              415.9999999753       -0.0000000247
  Total charge density on r-space grids:        0.0000075582
  Total charge density g-space grids:           0.0000075582

  Overlap energy of the core charge distribution:               0.00000007776309
  Self energy of the core charge distribution:              -2388.37244906618980
  Core Hamiltonian energy:                                    696.85992844409373
  Hartree energy:                                             990.12104072901207
  Exchange-correlation energy:                               -219.37890907368617

  Total energy:                                              -920.77038888900688

 ENERGY| Total FORCE_EVAL ( QS ) energy [hartree]           -920.770388889006881

 -------------------------------------------------------------------------------
 -                                                                             -
 -                                DBCSR STATISTICS                             -
 -                                                                             -
 -------------------------------------------------------------------------------
 COUNTER                                    TOTAL       BLAS       SMM       ACC
 flops     1 x    16 x    16              3559424       0.0%    100.0%      0.0%     
 flops     1 x    32 x    16             21356544       0.0%    100.0%      0.0%     
 flops     1 x    16 x    32             21356544       0.0%    100.0%      0.0%     
 flops    16 x    16 x   318             25724928       0.0%    100.0%      0.0%     
 flops     1 x    16 x     1             42465728       0.0%    100.0%      0.0%     
 flops     4 x    16 x    16             47890432       0.0%    100.0%      0.0%     
 flops     1 x     1 x   208            133204864       0.0%    100.0%      0.0%     
 flops    16 x    32 x   318            154349568       0.0%    100.0%      0.0%     
 flops    32 x    16 x   318            154349568       0.0%    100.0%      0.0%     
 flops     4 x    32 x    16            287342592       0.0%    100.0%      0.0%     
 flops     4 x    16 x    32            287342592       0.0%    100.0%      0.0%     
 flops     1 x    32 x    32            298991616       0.0%    100.0%      0.0%     
 flops     1 x    32 x     1            509588736       0.0%    100.0%      0.0%     
 flops     1 x    16 x     4            657155456       0.0%    100.0%      0.0%     
 flops     4 x    16 x     1            657155456       0.0%    100.0%      0.0%     
 flops     1 x     4 x   208           1901807232       0.0%    100.0%      0.0%     
 flops     4 x     1 x   208           1920818432       0.0%    100.0%      0.0%     
 flops    32 x    32 x   318           2160893952       0.0%    100.0%      0.0%     
 flops     4 x    32 x    32           4022796288       0.0%    100.0%      0.0%     
 flops     1 x    32 x     4           7885865472       0.0%    100.0%      0.0%     
 flops     4 x    32 x     1           7885865472       0.0%    100.0%      0.0%     
 flops     4 x    16 x     4           9436161024       0.0%    100.0%      0.0%     
 flops     4 x     4 x   208          27666269696       0.0%    100.0%      0.0%     
 flops   318 x   208 x   318          56791238400       0.0%    100.0%      0.0%     
 flops     4 x    32 x     4         113233932288       0.0%    100.0%      0.0%     
 flops   208 x   208 x   318         126848317440       0.0%    100.0%      0.0%     
 flops   318 x   208 x   208         155299762176       0.0%    100.0%      0.0%     
 flops   208 x   208 x   208         156347097088       0.0%    100.0%      0.0%     
 flops inhomo. stacks                           0       0.0%      0.0%      0.0%
 flops total                       674.702659E+09       0.0%    100.0%      0.0%
 flops max/rank                    674.702659E+09       0.0%    100.0%      0.0%
 matmuls inhomo. stacks                         0       0.0%      0.0%      0.0%
 matmuls total                          217823939       0.0%    100.0%      0.0%
 number of processed stacks                268924       0.0%    100.0%      0.0%
 average stack size                                     0.0     810.0       0.0
 marketing flops                   742.388990E+09
 -------------------------------------------------------------------------------
 # multiplications                          26381
 max memory usage/rank               2.089419E+09
 # max total images/rank                        1
 # max 3D layers                                1
 # MPI messages exchanged                       0
 -------------------------------------------------------------------------------
 -                                                                             -
 -                      DBCSR MESSAGE PASSING PERFORMANCE                      -
 -                                                                             -
 -------------------------------------------------------------------------------
 ROUTINE             CALLS      AVE VOLUME [Bytes]
 MP_Bcast               29                     12.
 MP_Allreduce       136676                      8.
 MP_Alltoall        109595                 154813.
 MP_ISend           104892                  22770.
 MP_IRecv           104892                  22770.
 -------------------------------------------------------------------------------

 -------------------------------------------------------------------------------
 -                                                                             -
 -                                DBM STATISTICS                               -
 -                                                                             -
 -------------------------------------------------------------------------------
    M  x    N  x    K                                          COUNT     PERCENT
 -------------------------------------------------------------------------------

 -------------------------------------------------------------------------------
 -                                                                             -
 -                                GRID STATISTICS                              -
 -                                                                             -
 -------------------------------------------------------------------------------
 LP    KERNEL             BACKEND                              COUNT     PERCENT
 2     collocate ortho    CPU                               35846836      30.92%
 2     integrate ortho    CPU                               33850018      29.19%
 1     collocate ortho    CPU                               18785016      16.20%
 1     integrate ortho    CPU                               16975979      14.64%
 3     integrate ortho    CPU                                4154661       3.58%
 0     collocate ortho    CPU                                3349128       2.89%
 0     integrate ortho    CPU                                2957686       2.55%
 0     collocate general  CPU                                  15168       0.01%
 1     integrate general  CPU                                  15072       0.01%
 -------------------------------------------------------------------------------

 MEMORY| Estimated peak process memory [MiB]                                1993

 -------------------------------------------------------------------------------
 -                                                                             -
 -                         MESSAGE PASSING PERFORMANCE                         -
 -                                                                             -
 -------------------------------------------------------------------------------

 ROUTINE             CALLS      AVE VOLUME [Bytes]
 MP_Group                4
 MP_Bcast            39609                   1308.
 MP_Allreduce       114251                    980.
 MP_Sync               349
 -------------------------------------------------------------------------------


 -------------------------------------------------------------------------------
 -                                                                             -
 -                           R E F E R E N C E S                               -
 -                                                                             -
 -------------------------------------------------------------------------------
 
 CP2K version 2025.1, the CP2K developers group (2025).
 CP2K is freely available from https://www.cp2k.org/ .
 
 T. D. Kuehne, M. Iannuzzi, M. Del Ben, V. V. Rybkin, P. Seewald, F. Stein, T. 
 Laino, R. Z. Khaliullin, O. Schuett, F. Schiffmann, D. Golze, J. Wilhelm, S. 
 Chulkov, M. H. Bani-Hashemian, V. Weber, U. Borstnik, M. Taillefumier, A. S. 
 Jakobovits, A. Lazzaro, H. Pabst, T. Mueller, R. Schade, M. Guidon, S. 
 Andermatt, N. Holmberg, G. K. Schenter, A. Hehn, A. Bussy, F. Belleflamme, G. 
 Tabacchi, A. Gloess, M. Lass, I. Bethune, C. J. Mundy, C. Plessl, M. Watkins, 
 J. VandeVondele, M. Krack, J. Hutter.
 J. Chem. Phys. 152, 194103 (2020).
 CP2K: An electronic structure and molecular dynamics software package - 
 Quickstep: Efficient and accurate electronic structure calculations.
 https://doi.org/10.1063/5.0007045

 O. Schuett, P. Messmer, J. Hutter, J. VandeVondele.
 Electronic Structure Calculations on Graphics Processing Units, 173-190 (2016).
 GPU-Accelerated Sparse Matrix-Matrix Multiplication for Linear Scaling Density 
 Functional Theory.
 https://doi.org/10.1002/9781118670712.ch8

 A. Heinecke, G. Henry, M. Hutchinson, H. Pabst.
 Proceedings of Intl. Supercomputing Conference, 981-991 (2016).
 LIBXSMM: Accelerating Small Matrix Multiplications by Runtime Code Generation.
 https://doi.org/10.1109/SC.2016.83

 J. Hutter, M. Iannuzzi, F. Schiffmann, J. VandeVondele.
 WIREs Comput Mol Sci. 4, 15-25 (2014).
 CP2K: atomistic simulations of condensed matter systems.
 https://doi.org/10.1002/wcms.1159

 U. Borstnik, J. VandeVondele, V. Weber, J. Hutter.
 Parallel Comput. 40, 47-58 (2014).
 Sparse matrix multiplication: The distributed block-compressed sparse row 
 library.
 https://doi.org/10.1016/j.parco.2014.03.012

 A. Marek, V. Blum, R. Johanni, V. Havu, B. Lang, T. Auckenthaler, A. Heinecke, 
 H. Bungartz, H. Lederer.
 J. Phys. Condens. Matter 26, 213201 (2014).
 The ELPA library: scalable parallel eigenvalue solutions for electronic 
 structure theory and computational science.
 https://doi.org/10.1088/0953-8984/26/21/213201

 J. VandeVondele, J. Hutter.
 J. Chem. Phys. 127, 114105 (2007).
 Gaussian basis sets for accurate calculations on molecular systems in gas and 
 condensed phases.
 https://doi.org/10.1063/1.2770708

 T. D. Kühne, M. Krack, F. R. Mohamed, M. Parrinello.
 Phys. Rev. Lett. 98, 066401 (2007).
 Efficient and accurate Car-Parrinello-like approach to Born-Oppenheimer 
 molecular dynamics.
 https://doi.org/10.1103/PhysRevLett.98.066401

 J. VandeVondele, M. Krack, F. Mohamed, M. Parrinello, T. Chassaing, J. Hutter.
 Comput. Phys. Commun. 167, 103-128 (2005).
 QUICKSTEP: Fast and accurate density functional calculations using a mixed 
 Gaussian and plane waves approach.
 https://doi.org/10.1016/j.cpc.2004.12.014

 M. Krack.
 Theor. Chem. Acc. 114, 145-152 (2005).
 Pseudopotentials for H to Kr optimized for gradient-corrected 
 exchange-correlation functionals.
 https://doi.org/10.1007/s00214-005-0655-y

 M. Frigo, S. G. Johnson.
 Proc. IEEE 93, 216-231 (2005).
 The design and implementation of FFTW3.
 https://doi.org/10.1109/JPROC.2004.840301

 J. Kolafa.
 J. Comput. Chem. 25, 335-342 (2004).
 Time-reversible always stable predictor-corrector method for molecular dynamics 
 of polarizable molecules.
 https://doi.org/10.1002/jcc.10385

 J. VandeVondele, J. Hutter.
 J. Chem. Phys. 118, 4365-4369 (2003).
 An efficient orbital transformation method for electronic structure 
 calculations.
 https://doi.org/10.1063/1.1543154

 C. Hartwigsen, S. Goedecker, J. Hutter.
 Phys. Rev. B 58, 3641-3662 (1998).
 Relativistic separable dual-space Gaussian pseudopotentials from H to Rn.
 https://doi.org/10.1103/PhysRevB.58.3641

 G. Lippert, J. Hutter, M. Parrinello.
 Mol. Phys. 92, 477-487 (1997).
 A hybrid Gaussian and plane wave density functional scheme.
 https://doi.org/10.1080/002689797170220

 S. Goedecker, M. Teter, J. Hutter.
 Phys. Rev. B 54, 1703-1710 (1996).
 Separable dual-space Gaussian pseudopotentials.
 https://doi.org/10.1103/PhysRevB.54.1703

 J. P. Perdew, K. Burke, M. Ernzerhof.
 Phys. Rev. Lett. 77, 3865-3868 (1996).
 Generalized gradient approximation made simple.
 https://doi.org/10.1103/PhysRevLett.77.3865

 R. H. Byrd, P. H. Lu, J. Nocedal, C. Y. Zhu.
 SIAM J. Sci. Comput. 16, 1190-1208 (1995).
 A Limited Memory Algorithm for Bound Constrained Optimization.
 https://doi.org/10.1137/0916069


 -------------------------------------------------------------------------------
 -                                                                             -
 -                                T I M I N G                                  -
 -                                                                             -
 -------------------------------------------------------------------------------
 SUBROUTINE                       CALLS  ASD         SELF TIME        TOTAL TIME
                                MAXIMUM       AVERAGE  MAXIMUM  AVERAGE  MAXIMUM
 CP2K                                 1  1.0     0.73     0.73 10865.70 10865.70
 cp_geo_opt                           1  2.0     0.04     0.04 10863.15 10863.15
 geoopt_lbfgs                         1  3.0     0.01     0.01 10863.11 10863.11
 cp_eval_at                         158  5.0     0.09     0.09 10862.16 10862.16
 cp_opt_gopt_step                   145  4.0     0.15     0.15 10837.13 10837.13
 qs_forces                          157  6.0     0.19     0.19 10836.12 10836.12
 qs_energies                        158  7.0     0.20     0.20  9751.96  9751.96
 scf_env_do_scf                     158  8.0     0.01     0.01  9381.87  9381.87
 rebuild_ks_matrix                 1349 10.6     0.02     0.02  8571.11  8571.11
 qs_ks_build_kohn_sham_matrix      1349 11.6     0.30     0.30  8571.09  8571.09
 scf_env_do_scf_inner_loop         1192  9.0     0.27     0.27  8363.50  8363.50
 qs_ks_update_qs_env               1350 10.0     0.01     0.01  7534.87  7534.87
 fft_wrap_pw1pw2                  23096 15.0     0.28     0.28  6505.36  6505.36
 fft_wrap_pw1pw2_150              14999 16.4   148.24   148.24  6398.91  6398.91
 qs_vxc_create                     1349 12.6     0.14     0.14  5910.58  5910.58
 xc_vxc_pw_create                  1349 13.6   344.49   344.49  5910.44  5910.44
 fft3d_s                          23097 17.0  4251.58  4251.58  4251.73  4251.73
 xc_pw_derive                      8094 15.6     0.07     0.07  3743.48  3743.48
 xc_rho_set_and_dset_create        1349 14.6   242.21   242.21  2816.73  2816.73
 xc_pw_divergence                  1349 14.6     0.03     0.03  2592.16  2592.16
 qs_rho_update_rho_low             1350 10.1     0.04     0.04  1980.22  1980.22
 calculate_rho_elec                1350 11.1    40.00    40.00  1980.18  1980.18
 sum_up_and_integrate              1349 12.6     0.05     0.05  1690.89  1690.89
 integrate_v_rspace                1349 13.6     1.05     1.05  1470.65  1470.65
 density_rs2pw                     1350 12.1     0.09     0.09  1255.11  1255.11
 qs_ks_update_qs_env_forces         157  7.0     0.00     0.00  1036.87  1036.87
 pw_scatter_s                     12142 17.4  1018.37  1018.37  1018.37  1018.37
 init_scf_loop                      158  9.0     0.04     0.04  1018.00  1018.00
 grid_integrate_task_list          1349 14.6   829.93   829.93   829.93   829.93
 grid_collocate_task_list          1350 12.1   685.07   685.07   685.07   685.07
 potential_pw2rs                   1349 14.6     1.07     1.07   639.67   639.67
 xc_functional_eval                1349 15.6     0.03     0.03   575.24   575.24
 pbe_lda_eval                      1349 16.6   575.21   575.21   575.21   575.21
 pw_gather_s                      10954 16.7   499.99   499.99   499.99   499.99
 pw_axpy                          13494 14.1   481.23   481.23   481.23   481.23
 pw_derive                        12141 16.0   339.22   339.22   339.22   339.22
 pw_copy_from_array               12142 17.4   305.50   305.50   305.50   305.50
 pw_poisson_solve                  1349 12.6     0.03     0.03   281.01   281.01
 pw_copy_to_array                 10954 16.7   275.97   275.97   275.97   275.97
 init_scf_run                       158  8.0     0.01     0.01   245.26   245.26
 scf_env_initial_rho_setup          158  9.0     0.01     0.01   245.25   245.25
 wfi_extrapolate                    158 10.0     0.03     0.03   243.18   243.18
 -------------------------------------------------------------------------------

 The number of warnings for this run is : 0
 
 -------------------------------------------------------------------------------
  **** **** ******  **  PROGRAM ENDED AT                 2026-10-07 21:12:44.781
 ***** ** ***  *** **   PROGRAM RAN ON                                    r6i5n2
 **    ****   ******    PROGRAM RAN BY                                   a266017
 ***** **    ** ** **   PROGRAM PROCESS ID                                974527
  **** **  *******  **  PROGRAM STOPPED IN /home/g7/a266017/VASP/cp2k/runs/rib_x
                                           _o00_si
