 DBCSR| CPU Multiplication driver                                           XSMM (U)
 DBCSR| Multrec recursion limit                                              512 (U)
 DBCSR| Multiplication stack size                                           1000 (D)
 DBCSR| Maximum elements for images                                    UNLIMITED (U)
 DBCSR| Multiplicative factor virtual images                                   1 (U)
 DBCSR| Use multiplication densification                                       T (D)
 DBCSR| Multiplication size stacks                                             3 (U)
 DBCSR| Use memory pool for CPU allocation                                     F (U)
 DBCSR| Number of 3D layers                                               SINGLE (U)
 DBCSR| Use MPI memory allocation                                              F (U)
 DBCSR| Use RMA algorithm                                                      F (U)
 DBCSR| Use Communication thread                                               T (U)
 DBCSR| Communication thread load                                             87 (D)
 DBCSR| MPI: My process id                                                     0
 DBCSR| MPI: Number of processes                                               1
 DBCSR| OMP: Current number of threads                                         1
 DBCSR| OMP: Max number of threads                                             1
 DBCSR| Split modifier for TAS multiplication algorithm                  1.0E+00 (U)


  **** **** ******  **  PROGRAM STARTED AT               2026-10-07 21:12:51.567
 ***** ** ***  *** **   PROGRAM STARTED ON                                r6i5n2
 **    ****   ******    PROGRAM STARTED BY                               a266017
 ***** **    ** ** **   PROGRAM PROCESS ID                                975151
  **** **  *******  **  PROGRAM STARTED IN /home/g7/a266017/VASP/cp2k/runs/rib_x
                                           _o00_si

 CP2K| version string:                                       CP2K version 2025.1
 CP2K| source code revision number:                                  git:9635df4
 CP2K| cp2kflags: omp libint fftw3 libxc libgrpp elpa parallel scalapack mpi_f08
 CP2K|             cosma xsmm plumed2 spglib mkl sirius libvori libbqb libvdwxc
 CP2K|             hdf5
 CP2K| is freely available from                            https://www.cp2k.org/
 CP2K| Program compiled at                          Fri Mar 13 14:45:02 JST 2026
 CP2K| Program compiled on                            s86fs1.tokai-sc.jaea.go.jp
 CP2K| Program compiled for                                                local
 CP2K| Data directory path                /home/center/app/CP2K/cp2k-2025.1/data
 CP2K| Input file name                                                    sp.inp
 
 GLOBAL| Force Environment number                                              1
 GLOBAL| Basis set file name                                        BASIS_MOLOPT
 GLOBAL| Potential file name                                      GTH_POTENTIALS
 GLOBAL| MM Potential file name                                     MM_POTENTIAL
 GLOBAL| Coordinate file name                                        relaxed.xyz
 GLOBAL| Method name                                                        CP2K
 GLOBAL| Project name                                                         sp
 GLOBAL| Run type                                                         ENERGY
 GLOBAL| FFT library                                                       FFTW3
 GLOBAL| Diagonalization library                                            ELPA
 GLOBAL| DGEMM library                                                      BLAS
 GLOBAL| Minimum number of eigenvectors for ELPA usage                        16
 GLOBAL| Orthonormality check for eigenvectors                          DISABLED
 GLOBAL| Matrix multiplication library                                     COSMA
 GLOBAL| All-to-all communication in single precision                          F
 GLOBAL| FFTs using library dependent lengths                                  F
 GLOBAL| Grid backend                                                       AUTO
 GLOBAL| Global print level                                                  LOW
 GLOBAL| MPI I/O enabled                                                       T
 GLOBAL| Total number of message passing processes                             1
 GLOBAL| Number of threads for this process                                    1
 GLOBAL| This output is from process                                           0
 GLOBAL| OpenMP stack size per thread (OMP_STACKSIZE)                    default
 GLOBAL| CPU model name                Intel(R) Xeon(R) Gold 6242R CPU @ 3.10GHz
 GLOBAL| CPUID                                                              1003

 MEMORY| system memory details [Kb]
 MEMORY|                        rank 0           min           max       average
 MEMORY| MemTotal            196248260     196248260     196248260     196248260
 MEMORY| MemFree             144606088     144606088     144606088     144606088
 MEMORY| Buffers                     0             0             0             0
 MEMORY| Cached               42312276      42312276      42312276      42312276
 MEMORY| Slab                  5548324       5548324       5548324       5548324
 MEMORY| SReclaimable           327140        327140        327140        327140
 MEMORY| MemLikelyFree       187245504     187245504     187245504     187245504

 
 GENERATE|  Preliminary Number of Bonds generated:                             0
 GENERATE|  Achieved consistency in connectivity generation.

 *******************************************************************************
 *******************************************************************************
 **                                                                           **
 **     #####                         ##              ##                      **
 **    ##   ##            ##          ##              ##                      **
 **   ##     ##                       ##            ######                    **
 **   ##     ##  ##   ##  ##   #####  ##  ##   ####   ##    #####    #####    **
 **   ##     ##  ##   ##  ##  ##      ## ##   ##      ##   ##   ##  ##   ##   **
 **   ##  ## ##  ##   ##  ##  ##      ####     ###    ##   ######   ######    **
 **    ##  ###   ##   ##  ##  ##      ## ##      ##   ##   ##       ##        **
 **     #######   #####   ##   #####  ##  ##  ####    ##    #####   ##        **
 **           ##                                                    ##        **
 **                                                                           **
 **                                                ... make the atoms dance   **
 **                                                                           **
 **            Copyright (C) by CP2K developers group (2000-2025)             **
 **                      J. Chem. Phys. 152, 194103 (2020)                    **
 **                                                                           **
 *******************************************************************************


 TOTAL NUMBERS AND MAXIMUM NUMBERS

  Total number of            - Atomic kinds:                                   4
                             - Atoms:                                         96
                             - Shell sets:                                    96
                             - Shells:                                       436
                             - Primitive Cartesian functions:                458
                             - Cartesian basis functions:                   1146
                             - Spherical basis functions:                   1072

  Maximum angular momentum of- Orbital basis functions:                        2
                             - Local part of the GTH pseudopotential:          2
                             - Non-local part of the GTH pseudopotential:      2


 SCF PARAMETERS         Density guess:                                    ATOMIC
                        --------------------------------------------------------
                        max_scf:                                             200
                        max_scf_history:                                       0
                        max_diis:                                              4
                        --------------------------------------------------------
                        eps_scf:                                        5.00E-06
                        eps_scf_history:                                0.00E+00
                        eps_diis:                                       1.00E-01
                        eps_eigval:                                     1.00E-05
                        --------------------------------------------------------
                        level_shift [a.u.]:                             0.000000
                        --------------------------------------------------------
                        No outer SCF

 Number of electrons:                                                        416
 Number of occupied orbitals:                                                208
 Number of molecular orbitals:                                               208

 Number of orbital functions:                                               1072
 Number of independent orbital functions:                                   1072

 Extrapolation method: initial_guess


 SCF WAVEFUNCTION OPTIMIZATION

  ----------------------------------- OT ---------------------------------------
  Minimizer      : DIIS                : direct inversion
                                         in the iterative subspace
                                         using   7 DIIS vectors
                                         safer DIIS on
  Preconditioner : FULL_SINGLE_INVERSE : inversion of 
                                         H + eS - 2*(Sc)(c^T*H*c+const)(Sc)^T
  Precond_solver : DEFAULT
  stepsize       :    0.08000000                  energy_gap     :    0.08000000
  eps_taylor     :   0.10000E-15                  max_taylor     :             4
  ----------------------------------- OT ---------------------------------------

  Step     Update method      Time    Convergence         Total energy    Change
  ------------------------------------------------------------------------------
     1 OT DIIS     0.80E-01   10.6     0.03291794      -896.9609726053 -8.97E+02
     2 OT DIIS     0.80E-01   12.8     0.04192913      -906.1197308076 -9.16E+00
     3 OT DIIS     0.80E-01   12.7     0.02627128      -911.2447112984 -5.12E+00
     4 OT DIIS     0.80E-01   12.7     0.01729034      -915.8560432327 -4.61E+00
     5 OT DIIS     0.80E-01   12.8     0.01116706      -920.3042061526 -4.45E+00
     6 OT DIIS     0.80E-01   12.8     0.00764075      -922.6906658179 -2.39E+00
     7 OT DIIS     0.80E-01   12.8     0.00555448      -923.8549940711 -1.16E+00
     8 OT DIIS     0.80E-01   12.8     0.00385402      -924.5857246289 -7.31E-01
     9 OT DIIS     0.80E-01   12.8     0.00297436      -924.8645424043 -2.79E-01
    10 OT DIIS     0.80E-01   12.8     0.00184276      -925.0910142739 -2.26E-01
    11 OT DIIS     0.80E-01   12.8     0.00138610      -925.1630804534 -7.21E-02
    12 OT DIIS     0.80E-01   12.7     0.00098347      -925.2303714780 -6.73E-02
    13 OT DIIS     0.80E-01   12.7     0.00070029      -925.2676997354 -3.73E-02
    14 OT DIIS     0.80E-01   12.8     0.00049216      -925.2849711945 -1.73E-02
    15 OT DIIS     0.80E-01   12.7     0.00034149      -925.2957227661 -1.08E-02
    16 OT DIIS     0.80E-01   12.8     0.00024469      -925.3016229881 -5.90E-03
    17 OT DIIS     0.80E-01   12.8     0.00018830      -925.3044150242 -2.79E-03
    18 OT DIIS     0.80E-01   12.8     0.00014696      -925.3062028388 -1.79E-03
    19 OT DIIS     0.80E-01   12.8     0.00011666      -925.3073692132 -1.17E-03
    20 OT DIIS     0.80E-01   12.8     0.00009660      -925.3080628349 -6.94E-04
    21 OT DIIS     0.80E-01   12.8     0.00007814      -925.3086490000 -5.86E-04
    22 OT DIIS     0.80E-01   12.8     0.00006510      -925.3090434226 -3.94E-04
    23 OT DIIS     0.80E-01   12.8     0.00005552      -925.3093186983 -2.75E-04
    24 OT DIIS     0.80E-01   12.8     0.00004750      -925.3095448730 -2.26E-04
    25 OT DIIS     0.80E-01   12.8     0.00004207      -925.3096973472 -1.52E-04
    26 OT DIIS     0.80E-01   12.8     0.00003721      -925.3098327145 -1.35E-04
    27 OT DIIS     0.80E-01   12.8     0.00003351      -925.3099364363 -1.04E-04
    28 OT DIIS     0.80E-01   12.8     0.00003073      -925.3100152248 -7.88E-05
    29 OT DIIS     0.80E-01   12.8     0.00002796      -925.3100950641 -7.98E-05
    30 OT DIIS     0.80E-01   12.8     0.00002571      -925.3101604038 -6.53E-05
    31 OT DIIS     0.80E-01   12.8     0.00002366      -925.3102226344 -6.22E-05
    32 OT DIIS     0.80E-01   12.8     0.00002177      -925.3102809457 -5.83E-05
    33 OT DIIS     0.80E-01   12.8     0.00002026      -925.3103288685 -4.79E-05
    34 OT DIIS     0.80E-01   12.8     0.00001884      -925.3103741267 -4.53E-05
    35 OT DIIS     0.80E-01   12.7     0.00001758      -925.3104154240 -4.13E-05
    36 OT DIIS     0.80E-01   12.8     0.00001646      -925.3104506830 -3.53E-05
    37 OT DIIS     0.80E-01   12.8     0.00001535      -925.3104854881 -3.48E-05
    38 OT DIIS     0.80E-01   12.8     0.00001437      -925.3105151664 -2.97E-05
    39 OT DIIS     0.80E-01   12.8     0.00001346      -925.3105428195 -2.77E-05
    40 OT DIIS     0.80E-01   12.8     0.00001263      -925.3105674358 -2.46E-05
    41 OT DIIS     0.80E-01   12.7     0.00001190      -925.3105886157 -2.12E-05
    42 OT DIIS     0.80E-01   12.7     0.00001122      -925.3106077842 -1.92E-05
    43 OT DIIS     0.80E-01   12.8     0.00001064      -925.3106244853 -1.67E-05
    44 OT DIIS     0.80E-01   12.8     0.00001012      -925.3106384820 -1.40E-05
    45 OT DIIS     0.80E-01   12.8     0.00000965      -925.3106516653 -1.32E-05
    46 OT DIIS     0.80E-01   12.8     0.00000922      -925.3106633366 -1.17E-05
    47 OT DIIS     0.80E-01   12.8     0.00000886      -925.3106735639 -1.02E-05
    48 OT DIIS     0.80E-01   12.7     0.00000852      -925.3106835505 -9.99E-06
    49 OT DIIS     0.80E-01   12.8     0.00000819      -925.3106935825 -1.00E-05
    50 OT DIIS     0.80E-01   12.7     0.00000791      -925.3107027504 -9.17E-06
    51 OT DIIS     0.80E-01   12.7     0.00000764      -925.3107117969 -9.05E-06
    52 OT DIIS     0.80E-01   12.8     0.00000738      -925.3107203426 -8.55E-06
    53 OT DIIS     0.80E-01   12.7     0.00000716      -925.3107286032 -8.26E-06
    54 OT DIIS     0.80E-01   12.7     0.00000692      -925.3107364032 -7.80E-06
    55 OT DIIS     0.80E-01   12.7     0.00000671      -925.3107438886 -7.49E-06
    56 OT DIIS     0.80E-01   12.8     0.00000648      -925.3107519871 -8.10E-06
    57 OT DIIS     0.80E-01   12.7     0.00000624      -925.3107600715 -8.08E-06
    58 OT DIIS     0.80E-01   12.8     0.00000603      -925.3107672148 -7.14E-06
    59 OT DIIS     0.80E-01   12.8     0.00000580      -925.3107750316 -7.82E-06
    60 OT DIIS     0.80E-01   12.7     0.00000559      -925.3107815809 -6.55E-06
    61 OT DIIS     0.80E-01   12.8     0.00000542      -925.3107869269 -5.35E-06
    62 OT DIIS     0.80E-01   12.8     0.00000522      -925.3107928148 -5.89E-06
    63 OT DIIS     0.80E-01   12.8     0.00000505      -925.3107979995 -5.18E-06
    64 OT DIIS     0.80E-01   12.7     0.00000489      -925.3108023307 -4.33E-06

  *** SCF run converged in    64 steps ***


  Electronic density on regular grids:       -416.0000000009       -0.0000000009
  Core density on regular grids:              415.9999999751       -0.0000000249
  Total charge density on r-space grids:       -0.0000000258
  Total charge density g-space grids:          -0.0000000258

  Overlap energy of the core charge distribution:               0.00000007776309
  Self energy of the core charge distribution:              -2388.37244906618980
  Core Hamiltonian energy:                                    668.58437268652040
  Hartree energy:                                            1010.20250842183634
  Exchange-correlation energy:                               -215.72523445059457

  Total energy:                                              -925.31080233066439

 !-----------------------------------------------------------------------------!
                     Mulliken Population Analysis

 #  Atom  Element  Kind  Atomic population                           Net charge
       1     O        1          6.652652                             -0.652652
       2     O        1          6.664678                             -0.664678
       3     O        1          6.670390                             -0.670390
       4     O        1          6.670705                             -0.670705
       5     O        1          6.675729                             -0.675729
       6     O        1          6.608872                             -0.608872
       7     O        1          6.426822                             -0.426822
       8     O        1          6.464762                             -0.464762
       9     O        1          6.520119                             -0.520119
      10     O        1          6.507142                             -0.507142
      11     O        1          6.537508                             -0.537508
      12     O        1          6.512987                             -0.512987
      13     O        1          6.491834                             -0.491834
      14     O        1          6.426183                             -0.426183
      15     O        1          6.438705                             -0.438705
      16     O        1          6.513108                             -0.513108
      17     O        1          6.539166                             -0.539166
      18     O        1          6.517514                             -0.517514
      19     O        1          6.568189                             -0.568189
      20     O        1          6.533019                             -0.533019
      21     Si       2          3.029884                              0.970116
      22     Si       2          3.048475                              0.951525
      23     Si       2          3.054600                              0.945400
      24     Si       2          3.072947                              0.927053
      25     Si       2          3.044940                              0.955060
      26     Si       2          3.045379                              0.954621
      27     Si       2          2.975395                              1.024605
      28     Si       2          3.044715                              0.955285
      29     H        3          0.786806                              0.213194
      30     H        3          0.819671                              0.180329
      31     H        3          0.822339                              0.177661
      32     H        3          0.812758                              0.187242
      33     O        1          6.553527                             -0.553527
      34     O        1          6.464545                             -0.464545
      35     O        1          6.541318                             -0.541318
      36     O        1          6.551949                             -0.551949
      37     Al       4          1.602482                              1.397518
      38     Al       4          1.666569                              1.333431
      39     O        1          6.678158                             -0.678158
      40     O        1          6.615348                             -0.615348
      41     O        1          6.432602                             -0.432602
      42     O        1          6.469114                             -0.469114
      43     O        1          6.655178                             -0.655178
      44     O        1          6.659947                             -0.659947
      45     O        1          6.667865                             -0.667865
      46     O        1          6.668103                             -0.668103
      47     O        1          6.442287                             -0.442287
      48     O        1          6.516585                             -0.516585
      49     O        1          6.542621                             -0.542621
      50     O        1          6.529197                             -0.529197
      51     O        1          6.561856                             -0.561856
      52     O        1          6.531606                             -0.531606
      53     O        1          6.512963                             -0.512963
      54     O        1          6.506169                             -0.506169
      55     O        1          6.544538                             -0.544538
      56     O        1          6.510357                             -0.510357
      57     O        1          6.489136                             -0.489136
      58     O        1          6.427449                             -0.427449
      59     Si       2          3.044098                              0.955902
      60     Si       2          3.039061                              0.960939
      61     Si       2          2.972511                              1.027489
      62     Si       2          3.038571                              0.961429
      63     Si       2          3.024351                              0.975649
      64     Si       2          3.046321                              0.953679
      65     Si       2          3.054951                              0.945049
      66     Si       2          3.074815                              0.925185
      67     H        3          0.822275                              0.177725
      68     H        3          0.814968                              0.185032
      69     H        3          0.788122                              0.211878
      70     H        3          0.818081                              0.181919
      71     O        1          6.542870                             -0.542870
      72     O        1          6.557272                             -0.557272
      73     O        1          6.553921                             -0.553921
      74     O        1          6.458931                             -0.458931
      75     Al       4          1.653271                              1.346729
      76     Al       4          1.655900                              1.344100
      77     Al       4          1.602532                              1.397468
      78     Al       4          1.656881                              1.343119
      79     O        1          6.449402                             -0.449402
      80     O        1          6.432142                             -0.432142
      81     O        1          6.450150                             -0.450150
      82     O        1          6.430669                             -0.430669
      83     H        3          0.806319                              0.193681
      84     H        3          0.796018                              0.203982
      85     H        3          0.805411                              0.194589
      86     H        3          0.796733                              0.203267
      87     H        3          0.807945                              0.192055
      88     H        3          0.805566                              0.194434
      89     H        3          0.769404                              0.230596
      90     H        3          0.803037                              0.196963
      91     H        3          0.801042                              0.198958
      92     H        3          0.805133                              0.194867
      93     H        3          0.809211                              0.190789
      94     H        3          0.769996                              0.230004
      95     H        3          0.801014                              0.198986
      96     H        3          0.801644                              0.198356
 # Total charge                            416.000000                  0.000000

 !-----------------------------------------------------------------------------!

 !-----------------------------------------------------------------------------!
                           Hirshfeld Charges

  #Atom  Element  Kind  Ref Charge     Population                    Net charge
      1       O      1       6.000          6.301                        -0.301
      2       O      1       6.000          6.305                        -0.305
      3       O      1       6.000          6.298                        -0.298
      4       O      1       6.000          6.302                        -0.302
      5       O      1       6.000          6.312                        -0.312
      6       O      1       6.000          6.275                        -0.275
      7       O      1       6.000          6.241                        -0.241
      8       O      1       6.000          6.209                        -0.209
      9       O      1       6.000          6.281                        -0.281
     10       O      1       6.000          6.284                        -0.284
     11       O      1       6.000          6.282                        -0.282
     12       O      1       6.000          6.285                        -0.285
     13       O      1       6.000          6.281                        -0.281
     14       O      1       6.000          6.284                        -0.284
     15       O      1       6.000          6.288                        -0.288
     16       O      1       6.000          6.288                        -0.288
     17       O      1       6.000          6.280                        -0.280
     18       O      1       6.000          6.281                        -0.281
     19       O      1       6.000          6.323                        -0.323
     20       O      1       6.000          6.264                        -0.264
     21       Si     2       4.000          3.436                         0.564
     22       Si     2       4.000          3.462                         0.538
     23       Si     2       4.000          3.449                         0.551
     24       Si     2       4.000          3.455                         0.545
     25       Si     2       4.000          3.458                         0.542
     26       Si     2       4.000          3.453                         0.547
     27       Si     2       4.000          3.481                         0.519
     28       Si     2       4.000          3.443                         0.557
     29       H      3       1.000          0.861                         0.139
     30       H      3       1.000          0.862                         0.138
     31       H      3       1.000          0.868                         0.132
     32       H      3       1.000          0.873                         0.127
     33       O      1       6.000          6.255                        -0.255
     34       O      1       6.000          6.255                        -0.255
     35       O      1       6.000          6.282                        -0.282
     36       O      1       6.000          6.283                        -0.283
     37       Al     4       3.000          2.537                         0.463
     38       Al     4       3.000          2.566                         0.434
     39       O      1       6.000          6.311                        -0.311
     40       O      1       6.000          6.278                        -0.278
     41       O      1       6.000          6.244                        -0.244
     42       O      1       6.000          6.210                        -0.210
     43       O      1       6.000          6.302                        -0.302
     44       O      1       6.000          6.305                        -0.305
     45       O      1       6.000          6.302                        -0.302
     46       O      1       6.000          6.302                        -0.302
     47       O      1       6.000          6.288                        -0.288
     48       O      1       6.000          6.290                        -0.290
     49       O      1       6.000          6.280                        -0.280
     50       O      1       6.000          6.284                        -0.284
     51       O      1       6.000          6.323                        -0.323
     52       O      1       6.000          6.265                        -0.265
     53       O      1       6.000          6.279                        -0.279
     54       O      1       6.000          6.285                        -0.285
     55       O      1       6.000          6.282                        -0.282
     56       O      1       6.000          6.284                        -0.284
     57       O      1       6.000          6.281                        -0.281
     58       O      1       6.000          6.283                        -0.283
     59       Si     2       4.000          3.457                         0.543
     60       Si     2       4.000          3.446                         0.554
     61       Si     2       4.000          3.479                         0.521
     62       Si     2       4.000          3.441                         0.559
     63       Si     2       4.000          3.432                         0.568
     64       Si     2       4.000          3.457                         0.543
     65       Si     2       4.000          3.448                         0.552
     66       Si     2       4.000          3.456                         0.544
     67       H      3       1.000          0.868                         0.132
     68       H      3       1.000          0.877                         0.123
     69       H      3       1.000          0.857                         0.143
     70       H      3       1.000          0.866                         0.134
     71       O      1       6.000          6.281                        -0.281
     72       O      1       6.000          6.286                        -0.286
     73       O      1       6.000          6.255                        -0.255
     74       O      1       6.000          6.252                        -0.252
     75       Al     4       3.000          2.559                         0.441
     76       Al     4       3.000          2.568                         0.432
     77       Al     4       3.000          2.540                         0.460
     78       Al     4       3.000          2.568                         0.432
     79       O      1       6.000          6.299                        -0.299
     80       O      1       6.000          6.269                        -0.269
     81       O      1       6.000          6.299                        -0.299
     82       O      1       6.000          6.275                        -0.275
     83       H      3       1.000          0.845                         0.155
     84       H      3       1.000          0.813                         0.187
     85       H      3       1.000          0.844                         0.156
     86       H      3       1.000          0.814                         0.186
     87       H      3       1.000          0.905                         0.095
     88       H      3       1.000          0.909                         0.091
     89       H      3       1.000          0.807                         0.193
     90       H      3       1.000          0.829                         0.171
     91       H      3       1.000          0.816                         0.184
     92       H      3       1.000          0.904                         0.096
     93       H      3       1.000          0.910                         0.090
     94       H      3       1.000          0.810                         0.190
     95       H      3       1.000          0.817                         0.183
     96       H      3       1.000          0.829                         0.171

  Total Charge                                                           -0.000
 !-----------------------------------------------------------------------------!

 ENERGY| Total FORCE_EVAL ( QS ) energy [hartree]           -925.310802330664387

 -------------------------------------------------------------------------------
 -                                                                             -
 -                                DBCSR STATISTICS                             -
 -                                                                             -
 -------------------------------------------------------------------------------
 COUNTER                                    TOTAL       BLAS       SMM       ACC
 flops     5 x    16 x    16               112640       0.0%    100.0%      0.0%     
 flops    16 x    16 x  1072               548864       0.0%    100.0%      0.0%     
 flops     5 x    32 x    16               675840       0.0%    100.0%      0.0%     
 flops     5 x    16 x    32               675840       0.0%    100.0%      0.0%     
 flops    13 x    16 x    16               985088       0.0%    100.0%      0.0%     
 flops    16 x    32 x  1072              3293184       0.0%    100.0%      0.0%     
 flops    32 x    16 x  1072              3293184       0.0%    100.0%      0.0%     
 flops    13 x    32 x    16              5910528       0.0%    100.0%      0.0%     
 flops    13 x    16 x    32              5910528       0.0%    100.0%      0.0%     
 flops     5 x    32 x    32              9461760       0.0%    100.0%      0.0%     
 flops    32 x    32 x  1072             46104576       0.0%    100.0%      0.0%     
 flops     5 x    16 x     5             47811200       0.0%    100.0%      0.0%     
 flops    13 x    32 x    32             82747392       0.0%    100.0%      0.0%     
 flops     5 x     5 x   208            160815200       0.0%    100.0%      0.0%     
 flops     5 x    16 x    13            416407680       0.0%    100.0%      0.0%     
 flops    13 x    16 x     5            416407680       0.0%    100.0%      0.0%     
 flops     5 x    32 x     5            573734400       0.0%    100.0%      0.0%     
 flops    13 x     5 x   208           1333180160       0.0%    100.0%      0.0%     
 flops     5 x    13 x   208           1336695360       0.0%    100.0%      0.0%     
 flops    13 x    16 x    13           3678435072       0.0%    100.0%      0.0%     
 flops     5 x    32 x    13           4996892160       0.0%    100.0%      0.0%     
 flops    13 x    32 x     5           4996892160       0.0%    100.0%      0.0%     
 flops   208 x   208 x   208          10258759680       0.0%    100.0%      0.0%     
 flops    13 x    13 x   208          11962225600       0.0%    100.0%      0.0%     
 flops   208 x   208 x  1072          23653294080       0.0%    100.0%      0.0%     
 flops  1072 x   208 x   208          29497049088       0.0%    100.0%      0.0%     
 flops  1072 x   208 x  1072          31073935360       0.0%    100.0%      0.0%     
 flops    13 x    32 x    13          44141220864       0.0%    100.0%      0.0%     
 flops inhomo. stacks                           0       0.0%      0.0%      0.0%
 flops total                       168.703475E+09       0.0%    100.0%      0.0%
 flops max/rank                    168.703475E+09       0.0%    100.0%      0.0%
 matmuls inhomo. stacks                         0       0.0%      0.0%      0.0%
 matmuls total                            8273343       0.0%    100.0%      0.0%
 number of processed stacks                 10600       0.0%    100.0%      0.0%
 average stack size                                     0.0     780.5       0.0
 marketing flops                   190.465606E+09
 -------------------------------------------------------------------------------
 # multiplications                           1412
 max memory usage/rank               2.759795E+09
 # max total images/rank                        1
 # max 3D layers                                1
 # MPI messages exchanged                       0
 -------------------------------------------------------------------------------
 -                                                                             -
 -                      DBCSR MESSAGE PASSING PERFORMANCE                      -
 -                                                                             -
 -------------------------------------------------------------------------------
 ROUTINE             CALLS      AVE VOLUME [Bytes]
 MP_Bcast               29                     12.
 MP_Allreduce         7738                     21.
 MP_Alltoall          4702                 140947.
 MP_ISend             5644                  18373.
 MP_IRecv             5644                  18373.
 -------------------------------------------------------------------------------

 -------------------------------------------------------------------------------
 -                                                                             -
 -                                DBM STATISTICS                               -
 -                                                                             -
 -------------------------------------------------------------------------------
    M  x    N  x    K                                          COUNT     PERCENT
 -------------------------------------------------------------------------------

 -------------------------------------------------------------------------------
 -                                                                             -
 -                                GRID STATISTICS                              -
 -                                                                             -
 -------------------------------------------------------------------------------
 LP    KERNEL             BACKEND                              COUNT     PERCENT
 4     collocate ortho    CPU                                2113345      30.09%
 4     integrate ortho    CPU                                2080832      29.63%
 3     collocate ortho    CPU                                1206270      17.17%
 3     integrate ortho    CPU                                1187712      16.91%
 2     collocate ortho    CPU                                 218595       3.11%
 2     integrate ortho    CPU                                 215232       3.06%
 0     collocate general  CPU                                    864       0.01%
 0     integrate general  CPU                                    768       0.01%
 -------------------------------------------------------------------------------

 MEMORY| Estimated peak process memory [MiB]                                2629

 -------------------------------------------------------------------------------
 -                                                                             -
 -                         MESSAGE PASSING PERFORMANCE                         -
 -                                                                             -
 -------------------------------------------------------------------------------

 ROUTINE             CALLS      AVE VOLUME [Bytes]
 MP_Group                4
 MP_Bcast             4637                   1311.
 MP_Allreduce        12035                   1143.
 MP_Sync                68
 -------------------------------------------------------------------------------


 -------------------------------------------------------------------------------
 -                                                                             -
 -                           R E F E R E N C E S                               -
 -                                                                             -
 -------------------------------------------------------------------------------
 
 CP2K version 2025.1, the CP2K developers group (2025).
 CP2K is freely available from https://www.cp2k.org/ .
 
 T. D. Kuehne, M. Iannuzzi, M. Del Ben, V. V. Rybkin, P. Seewald, F. Stein, T. 
 Laino, R. Z. Khaliullin, O. Schuett, F. Schiffmann, D. Golze, J. Wilhelm, S. 
 Chulkov, M. H. Bani-Hashemian, V. Weber, U. Borstnik, M. Taillefumier, A. S. 
 Jakobovits, A. Lazzaro, H. Pabst, T. Mueller, R. Schade, M. Guidon, S. 
 Andermatt, N. Holmberg, G. K. Schenter, A. Hehn, A. Bussy, F. Belleflamme, G. 
 Tabacchi, A. Gloess, M. Lass, I. Bethune, C. J. Mundy, C. Plessl, M. Watkins, 
 J. VandeVondele, M. Krack, J. Hutter.
 J. Chem. Phys. 152, 194103 (2020).
 CP2K: An electronic structure and molecular dynamics software package - 
 Quickstep: Efficient and accurate electronic structure calculations.
 https://doi.org/10.1063/5.0007045

 O. Schuett, P. Messmer, J. Hutter, J. VandeVondele.
 Electronic Structure Calculations on Graphics Processing Units, 173-190 (2016).
 GPU-Accelerated Sparse Matrix-Matrix Multiplication for Linear Scaling Density 
 Functional Theory.
 https://doi.org/10.1002/9781118670712.ch8

 A. Heinecke, G. Henry, M. Hutchinson, H. Pabst.
 Proceedings of Intl. Supercomputing Conference, 981-991 (2016).
 LIBXSMM: Accelerating Small Matrix Multiplications by Runtime Code Generation.
 https://doi.org/10.1109/SC.2016.83

 J. Hutter, M. Iannuzzi, F. Schiffmann, J. VandeVondele.
 WIREs Comput Mol Sci. 4, 15-25 (2014).
 CP2K: atomistic simulations of condensed matter systems.
 https://doi.org/10.1002/wcms.1159

 U. Borstnik, J. VandeVondele, V. Weber, J. Hutter.
 Parallel Comput. 40, 47-58 (2014).
 Sparse matrix multiplication: The distributed block-compressed sparse row 
 library.
 https://doi.org/10.1016/j.parco.2014.03.012

 A. Marek, V. Blum, R. Johanni, V. Havu, B. Lang, T. Auckenthaler, A. Heinecke, 
 H. Bungartz, H. Lederer.
 J. Phys. Condens. Matter 26, 213201 (2014).
 The ELPA library: scalable parallel eigenvalue solutions for electronic 
 structure theory and computational science.
 https://doi.org/10.1088/0953-8984/26/21/213201

 J. VandeVondele, J. Hutter.
 J. Chem. Phys. 127, 114105 (2007).
 Gaussian basis sets for accurate calculations on molecular systems in gas and 
 condensed phases.
 https://doi.org/10.1063/1.2770708

 J. VandeVondele, M. Krack, F. Mohamed, M. Parrinello, T. Chassaing, J. Hutter.
 Comput. Phys. Commun. 167, 103-128 (2005).
 QUICKSTEP: Fast and accurate density functional calculations using a mixed 
 Gaussian and plane waves approach.
 https://doi.org/10.1016/j.cpc.2004.12.014

 M. Krack.
 Theor. Chem. Acc. 114, 145-152 (2005).
 Pseudopotentials for H to Kr optimized for gradient-corrected 
 exchange-correlation functionals.
 https://doi.org/10.1007/s00214-005-0655-y

 M. Frigo, S. G. Johnson.
 Proc. IEEE 93, 216-231 (2005).
 The design and implementation of FFTW3.
 https://doi.org/10.1109/JPROC.2004.840301

 J. VandeVondele, J. Hutter.
 J. Chem. Phys. 118, 4365-4369 (2003).
 An efficient orbital transformation method for electronic structure 
 calculations.
 https://doi.org/10.1063/1.1543154

 C. Hartwigsen, S. Goedecker, J. Hutter.
 Phys. Rev. B 58, 3641-3662 (1998).
 Relativistic separable dual-space Gaussian pseudopotentials from H to Rn.
 https://doi.org/10.1103/PhysRevB.58.3641

 G. Lippert, J. Hutter, M. Parrinello.
 Mol. Phys. 92, 477-487 (1997).
 A hybrid Gaussian and plane wave density functional scheme.
 https://doi.org/10.1080/002689797170220

 S. Goedecker, M. Teter, J. Hutter.
 Phys. Rev. B 54, 1703-1710 (1996).
 Separable dual-space Gaussian pseudopotentials.
 https://doi.org/10.1103/PhysRevB.54.1703

 J. P. Perdew, K. Burke, M. Ernzerhof.
 Phys. Rev. Lett. 77, 3865-3868 (1996).
 Generalized gradient approximation made simple.
 https://doi.org/10.1103/PhysRevLett.77.3865


 -------------------------------------------------------------------------------
 -                                                                             -
 -                                T I M I N G                                  -
 -                                                                             -
 -------------------------------------------------------------------------------
 SUBROUTINE                       CALLS  ASD         SELF TIME        TOTAL TIME
                                MAXIMUM       AVERAGE  MAXIMUM  AVERAGE  MAXIMUM
 CP2K                                 1  1.0    0.015    0.015  829.819  829.819
 qs_energies                          1  2.0    0.000    0.000  827.229  827.229
 scf_env_do_scf                       1  3.0    0.000    0.000  817.387  817.387
 scf_env_do_scf_inner_loop           64  4.0    0.009    0.009  806.983  806.983
 qs_ks_update_qs_env                 65  5.0    0.001    0.001  616.830  616.830
 rebuild_ks_matrix                   64  6.0    0.000    0.000  616.684  616.684
 qs_ks_build_kohn_sham_matrix        64  7.0    0.008    0.008  616.683  616.683
 fft_wrap_pw1pw2                   1094 10.3    0.014    0.014  401.016  401.016
 fft_wrap_pw1pw2_200                707 11.7   10.177   10.177  391.171  391.171
 qs_vxc_create                       64  8.0    0.001    0.001  379.431  379.431
 xc_vxc_pw_create                    64  9.0   24.258   24.258  379.430  379.430
 fft3d_s                           1095 12.3  275.284  275.284  275.316  275.316
 xc_pw_derive                       384 11.0    0.003    0.003  233.183  233.183
 qs_rho_update_rho_low               65  5.0    0.000    0.000  192.418  192.418
 calculate_rho_elec                  65  6.0    2.887    2.887  192.418  192.418
 xc_rho_set_and_dset_create          64 10.0   16.974   16.974  175.712  175.712
 sum_up_and_integrate                64  8.0    0.001    0.001  175.567  175.567
 xc_pw_divergence                    64 10.0    0.002    0.002  168.418  168.418
 integrate_v_rspace                  64  9.0    0.084    0.084  160.067  160.067
 grid_integrate_task_list            64 10.0  116.075  116.075  116.075  116.075
 grid_collocate_task_list            65  7.0  108.529  108.529  108.529  108.529
 density_rs2pw                       65  7.0    0.003    0.003   81.002   81.002
 potential_pw2rs                     64 10.0    0.087    0.087   43.908   43.908
 pw_scatter_s                       577 12.7   41.791   41.791   41.791   41.791
 xc_functional_eval                  64 11.0    0.001    0.001   41.413   41.413
 pbe_lda_eval                        64 12.0   41.413   41.413   41.413   41.413
 pw_axpy                            644  9.3   33.814   33.814   33.814   33.814
 pw_gather_s                        517 11.9   32.818   32.818   32.818   32.818
 pw_derive                          576 11.3   23.699   23.699   23.699   23.699
 pw_copy_from_array                 577 12.7   21.620   21.620   21.620   21.620
 pw_poisson_solve                    64  8.0    0.001    0.001   19.569   19.569
 pw_copy_to_array                   517 11.9   19.188   19.188   19.188   19.188
 -------------------------------------------------------------------------------

 The number of warnings for this run is : 0
 
 -------------------------------------------------------------------------------
  **** **** ******  **  PROGRAM ENDED AT                 2026-10-07 21:26:44.979
 ***** ** ***  *** **   PROGRAM RAN ON                                    r6i5n2
 **    ****   ******    PROGRAM RAN BY                                   a266017
 ***** **    ** ** **   PROGRAM PROCESS ID                                975151
  **** **  *******  **  PROGRAM STOPPED IN /home/g7/a266017/VASP/cp2k/runs/rib_x
                                           _o00_si
