 DBCSR| CPU Multiplication driver                                           XSMM (U)
 DBCSR| Multrec recursion limit                                              512 (U)
 DBCSR| Multiplication stack size                                           1000 (D)
 DBCSR| Maximum elements for images                                    UNLIMITED (U)
 DBCSR| Multiplicative factor virtual images                                   1 (U)
 DBCSR| Use multiplication densification                                       T (D)
 DBCSR| Multiplication size stacks                                             3 (U)
 DBCSR| Use memory pool for CPU allocation                                     F (U)
 DBCSR| Number of 3D layers                                               SINGLE (U)
 DBCSR| Use MPI memory allocation                                              F (U)
 DBCSR| Use RMA algorithm                                                      F (U)
 DBCSR| Use Communication thread                                               T (U)
 DBCSR| Communication thread load                                             87 (D)
 DBCSR| MPI: My process id                                                     0
 DBCSR| MPI: Number of processes                                               1
 DBCSR| OMP: Current number of threads                                         1
 DBCSR| OMP: Max number of threads                                             1
 DBCSR| Split modifier for TAS multiplication algorithm                  1.0E+00 (U)


  **** **** ******  **  PROGRAM STARTED AT               2026-10-07 16:51:46.325
 ***** ** ***  *** **   PROGRAM STARTED ON                                r6i5n2
 **    ****   ******    PROGRAM STARTED BY                               a266017
 ***** **    ** ** **   PROGRAM PROCESS ID                                972868
  **** **  *******  **  PROGRAM STARTED IN /home/g7/a266017/VASP/cp2k/runs/rib_y
                                           _o00_si

 CP2K| version string:                                       CP2K version 2025.1
 CP2K| source code revision number:                                  git:9635df4
 CP2K| cp2kflags: omp libint fftw3 libxc libgrpp elpa parallel scalapack mpi_f08
 CP2K|             cosma xsmm plumed2 spglib mkl sirius libvori libbqb libvdwxc
 CP2K|             hdf5
 CP2K| is freely available from                            https://www.cp2k.org/
 CP2K| Program compiled at                          Fri Mar 13 14:45:02 JST 2026
 CP2K| Program compiled on                            s86fs1.tokai-sc.jaea.go.jp
 CP2K| Program compiled for                                                local
 CP2K| Data directory path                                                 /data
 CP2K| Input file name                                                   opt.inp
 
 GLOBAL| Force Environment number                                              1
 GLOBAL| Basis set file name                                        BASIS_MOLOPT
 GLOBAL| Potential file name                                      GTH_POTENTIALS
 GLOBAL| MM Potential file name                                     MM_POTENTIAL
 GLOBAL| Coordinate file name                                          start.xyz
 GLOBAL| Method name                                                        CP2K
 GLOBAL| Project name                                                        opt
 GLOBAL| Run type                                                        GEO_OPT
 GLOBAL| FFT library                                                       FFTW3
 GLOBAL| Diagonalization library                                            ELPA
 GLOBAL| DGEMM library                                                      BLAS
 GLOBAL| Minimum number of eigenvectors for ELPA usage                        16
 GLOBAL| Orthonormality check for eigenvectors                          DISABLED
 GLOBAL| Matrix multiplication library                                     COSMA
 GLOBAL| All-to-all communication in single precision                          F
 GLOBAL| FFTs using library dependent lengths                                  F
 GLOBAL| Grid backend                                                       AUTO
 GLOBAL| Global print level                                                  LOW
 GLOBAL| MPI I/O enabled                                                       T
 GLOBAL| Total number of message passing processes                             1
 GLOBAL| Number of threads for this process                                    1
 GLOBAL| This output is from process                                           0
 GLOBAL| OpenMP stack size per thread (OMP_STACKSIZE)                    default
 GLOBAL| CPU model name                Intel(R) Xeon(R) Gold 6242R CPU @ 3.10GHz
 GLOBAL| CPUID                                                              1003

 MEMORY| system memory details [Kb]
 MEMORY|                        rank 0           min           max       average
 MEMORY| MemTotal            196248260     196248260     196248260     196248260
 MEMORY| MemFree             181947516     181947516     181947516     181947516
 MEMORY| Buffers                     0             0             0             0
 MEMORY| Cached                9605644       9605644       9605644       9605644
 MEMORY| Slab                  1397700       1397700       1397700       1397700
 MEMORY| SReclaimable           245936        245936        245936        245936
 MEMORY| MemLikelyFree       191799096     191799096     191799096     191799096

 
 GENERATE|  Preliminary Number of Bonds generated:                             0
 GENERATE|  Achieved consistency in connectivity generation.

 *******************************************************************************
 *   ___                                                                       *
 *  /   \                                                                      *
 * [ABORT]                                                                     *
 *  \___/  The specified OLD file <BASIS_MOLOPT> cannot be opened. It does not *
 *    |                      exist. Data directory path: /data                 *
 *  O/|                                                                        *
 * /| |                                                                        *
 * / \                                                   common/cp_files.F:403 *
 *******************************************************************************


 ===== Routine Calling Stack ===== 

            3 read_qs_kind
            2 create_qs_kind_set
            1 CP2K
 DBCSR| CPU Multiplication driver                                           XSMM (U)
 DBCSR| Multrec recursion limit                                              512 (U)
 DBCSR| Multiplication stack size                                           1000 (D)
 DBCSR| Maximum elements for images                                    UNLIMITED (U)
 DBCSR| Multiplicative factor virtual images                                   1 (U)
 DBCSR| Use multiplication densification                                       T (D)
 DBCSR| Multiplication size stacks                                             3 (U)
 DBCSR| Use memory pool for CPU allocation                                     F (U)
 DBCSR| Number of 3D layers                                               SINGLE (U)
 DBCSR| Use MPI memory allocation                                              F (U)
 DBCSR| Use RMA algorithm                                                      F (U)
 DBCSR| Use Communication thread                                               T (U)
 DBCSR| Communication thread load                                             87 (D)
 DBCSR| MPI: My process id                                                     0
 DBCSR| MPI: Number of processes                                               1
 DBCSR| OMP: Current number of threads                                         1
 DBCSR| OMP: Max number of threads                                             1
 DBCSR| Split modifier for TAS multiplication algorithm                  1.0E+00 (U)


  **** **** ******  **  PROGRAM STARTED AT               2026-10-08 03:04:48.495
 ***** ** ***  *** **   PROGRAM STARTED ON                                r6i5n2
 **    ****   ******    PROGRAM STARTED BY                               a266017
 ***** **    ** ** **   PROGRAM PROCESS ID                                976416
  **** **  *******  **  PROGRAM STARTED IN /home/g7/a266017/VASP/cp2k/runs/rib_y
                                           _o00_si

 CP2K| version string:                                       CP2K version 2025.1
 CP2K| source code revision number:                                  git:9635df4
 CP2K| cp2kflags: omp libint fftw3 libxc libgrpp elpa parallel scalapack mpi_f08
 CP2K|             cosma xsmm plumed2 spglib mkl sirius libvori libbqb libvdwxc
 CP2K|             hdf5
 CP2K| is freely available from                            https://www.cp2k.org/
 CP2K| Program compiled at                          Fri Mar 13 14:45:02 JST 2026
 CP2K| Program compiled on                            s86fs1.tokai-sc.jaea.go.jp
 CP2K| Program compiled for                                                local
 CP2K| Data directory path                /home/center/app/CP2K/cp2k-2025.1/data
 CP2K| Input file name                                                   opt.inp
 
 GLOBAL| Force Environment number                                              1
 GLOBAL| Basis set file name                                        BASIS_MOLOPT
 GLOBAL| Potential file name                                      GTH_POTENTIALS
 GLOBAL| MM Potential file name                                     MM_POTENTIAL
 GLOBAL| Coordinate file name                                          start.xyz
 GLOBAL| Method name                                                        CP2K
 GLOBAL| Project name                                                        opt
 GLOBAL| Run type                                                        GEO_OPT
 GLOBAL| FFT library                                                       FFTW3
 GLOBAL| Diagonalization library                                            ELPA
 GLOBAL| DGEMM library                                                      BLAS
 GLOBAL| Minimum number of eigenvectors for ELPA usage                        16
 GLOBAL| Orthonormality check for eigenvectors                          DISABLED
 GLOBAL| Matrix multiplication library                                     COSMA
 GLOBAL| All-to-all communication in single precision                          F
 GLOBAL| FFTs using library dependent lengths                                  F
 GLOBAL| Grid backend                                                       AUTO
 GLOBAL| Global print level                                                  LOW
 GLOBAL| MPI I/O enabled                                                       T
 GLOBAL| Total number of message passing processes                             1
 GLOBAL| Number of threads for this process                                    1
 GLOBAL| This output is from process                                           0
 GLOBAL| OpenMP stack size per thread (OMP_STACKSIZE)                    default
 GLOBAL| CPU model name                Intel(R) Xeon(R) Gold 6242R CPU @ 3.10GHz
 GLOBAL| CPUID                                                              1003

 MEMORY| system memory details [Kb]
 MEMORY|                        rank 0           min           max       average
 MEMORY| MemTotal            196248260     196248260     196248260     196248260
 MEMORY| MemFree             182710812     182710812     182710812     182710812
 MEMORY| Buffers                     0             0             0             0
 MEMORY| Cached                9021976       9021976       9021976       9021976
 MEMORY| Slab                  1243032       1243032       1243032       1243032
 MEMORY| SReclaimable           183160        183160        183160        183160
 MEMORY| MemLikelyFree       191915948     191915948     191915948     191915948

 
 GENERATE|  Preliminary Number of Bonds generated:                             0
 GENERATE|  Achieved consistency in connectivity generation.

 *******************************************************************************
 *******************************************************************************
 **                                                                           **
 **     #####                         ##              ##                      **
 **    ##   ##            ##          ##              ##                      **
 **   ##     ##                       ##            ######                    **
 **   ##     ##  ##   ##  ##   #####  ##  ##   ####   ##    #####    #####    **
 **   ##     ##  ##   ##  ##  ##      ## ##   ##      ##   ##   ##  ##   ##   **
 **   ##  ## ##  ##   ##  ##  ##      ####     ###    ##   ######   ######    **
 **    ##  ###   ##   ##  ##  ##      ## ##      ##   ##   ##       ##        **
 **     #######   #####   ##   #####  ##  ##  ####    ##    #####   ##        **
 **           ##                                                    ##        **
 **                                                                           **
 **                                                ... make the atoms dance   **
 **                                                                           **
 **            Copyright (C) by CP2K developers group (2000-2025)             **
 **                      J. Chem. Phys. 152, 194103 (2020)                    **
 **                                                                           **
 *******************************************************************************


 TOTAL NUMBERS AND MAXIMUM NUMBERS

  Total number of            - Atomic kinds:                                   4
                             - Atoms:                                         92
                             - Shell sets:                                    92
                             - Shells:                                       166
                             - Primitive Cartesian functions:                437
                             - Cartesian basis functions:                    314
                             - Spherical basis functions:                    314

  Maximum angular momentum of- Orbital basis functions:                        1
                             - Local part of the GTH pseudopotential:          2
                             - Non-local part of the GTH pseudopotential:      2


 SCF PARAMETERS         Density guess:                                    ATOMIC
                        --------------------------------------------------------
                        max_scf:                                             200
                        max_scf_history:                                       0
                        max_diis:                                              4
                        --------------------------------------------------------
                        eps_scf:                                        1.00E-05
                        eps_scf_history:                                0.00E+00
                        eps_diis:                                       1.00E-01
                        eps_eigval:                                     1.00E-05
                        --------------------------------------------------------
                        level_shift [a.u.]:                             0.000000
                        --------------------------------------------------------
                        No outer SCF

 *******************************************************************************
 ***                     STARTING GEOMETRY OPTIMIZATION                      ***
 ***                                 L-BFGS                                  ***
 *******************************************************************************

 --------------------------
 OPTIMIZATION STEP:      1
 --------------------------

 Number of electrons:                                                        408
 Number of occupied orbitals:                                                204
 Number of molecular orbitals:                                               204

 Number of orbital functions:                                                314
 Number of independent orbital functions:                                    314

 Extrapolation method: initial_guess


 SCF WAVEFUNCTION OPTIMIZATION

  ----------------------------------- OT ---------------------------------------
  Minimizer      : DIIS                : direct inversion
                                         in the iterative subspace
                                         using   7 DIIS vectors
                                         safer DIIS on
  Preconditioner : FULL_SINGLE_INVERSE : inversion of 
                                         H + eS - 2*(Sc)(c^T*H*c+const)(Sc)^T
  Precond_solver : DEFAULT
  stepsize       :    0.08000000                  energy_gap     :    0.08000000
  eps_taylor     :   0.10000E-15                  max_taylor     :             4
  ----------------------------------- OT ---------------------------------------

  Step     Update method      Time    Convergence         Total energy    Change
  ------------------------------------------------------------------------------
     1 OT DIIS     0.80E-01    5.1     0.05230829      -880.1270038552 -8.80E+02
     2 OT DIIS     0.80E-01    6.1     0.07638192      -886.0673732215 -5.94E+00
     3 OT DIIS     0.80E-01    6.1     0.04204168      -890.6660048361 -4.60E+00
     4 OT DIIS     0.80E-01    6.1     0.04310847      -893.5325867599 -2.87E+00
     5 OT DIIS     0.80E-01    6.1     0.02385465      -896.4693232356 -2.94E+00
     6 OT DIIS     0.80E-01    6.1     0.01500926      -899.4510882113 -2.98E+00
     7 OT DIIS     0.80E-01    6.1     0.01133581      -900.3938147540 -9.43E-01
     8 OT DIIS     0.80E-01    6.1     0.00770781      -901.2780232169 -8.84E-01
     9 OT DIIS     0.80E-01    6.1     0.00613276      -901.4999411466 -2.22E-01
    10 OT DIIS     0.80E-01    6.1     0.00335897      -901.7940673937 -2.94E-01
    11 OT DIIS     0.80E-01    6.1     0.00238211      -901.8620314520 -6.80E-02
    12 OT DIIS     0.80E-01    6.1     0.00179670      -901.9025747634 -4.05E-02
    13 OT DIIS     0.80E-01    6.1     0.00114581      -901.9306502404 -2.81E-02
    14 OT DIIS     0.80E-01    6.1     0.00079601      -901.9440695394 -1.34E-02
    15 OT DIIS     0.80E-01    6.1     0.00058270      -901.9517497773 -7.68E-03
    16 OT DIIS     0.80E-01    6.1     0.00043087      -901.9566039749 -4.85E-03
    17 OT DIIS     0.80E-01    6.1     0.00031721      -901.9594048652 -2.80E-03
    18 OT DIIS     0.80E-01    6.1     0.00023662      -901.9611123800 -1.71E-03
    19 OT DIIS     0.80E-01    6.1     0.00017930      -901.9620905132 -9.78E-04
    20 OT DIIS     0.80E-01    6.1     0.00014459      -901.9626062221 -5.16E-04
    21 OT DIIS     0.80E-01    6.1     0.00011150      -901.9630122737 -4.06E-04
    22 OT DIIS     0.80E-01    6.1     0.00009248      -901.9632354731 -2.23E-04
    23 OT DIIS     0.80E-01    6.1     0.00007881      -901.9633906517 -1.55E-04
    24 OT DIIS     0.80E-01    6.1     0.00006673      -901.9635225671 -1.32E-04
    25 OT DIIS     0.80E-01    6.1     0.00005737      -901.9636180280 -9.55E-05
    26 OT DIIS     0.80E-01    6.1     0.00004877      -901.9636981691 -8.01E-05
    27 OT DIIS     0.80E-01    6.1     0.00004330      -901.9637486098 -5.04E-05
    28 OT DIIS     0.80E-01    6.1     0.00003891      -901.9637887396 -4.01E-05
    29 OT DIIS     0.80E-01    6.1     0.00003482      -901.9638243111 -3.56E-05
    30 OT DIIS     0.80E-01    6.1     0.00003141      -901.9638519059 -2.76E-05
    31 OT DIIS     0.80E-01    6.1     0.00002797      -901.9638774825 -2.56E-05
    32 OT DIIS     0.80E-01    6.1     0.00002478      -901.9638987447 -2.13E-05
    33 OT DIIS     0.80E-01    6.1     0.00002235      -901.9639134177 -1.47E-05
    34 OT DIIS     0.80E-01    6.1     0.00002008      -901.9639256009 -1.22E-05
    35 OT DIIS     0.80E-01    6.1     0.00001826      -901.9639349790 -9.38E-06
    36 OT DIIS     0.80E-01    6.1     0.00001673      -901.9639428958 -7.92E-06
    37 OT DIIS     0.80E-01    6.1     0.00001533      -901.9639501019 -7.21E-06
    38 OT DIIS     0.80E-01    6.1     0.00001406      -901.9639566019 -6.50E-06
    39 OT DIIS     0.80E-01    6.1     0.00001293      -901.9639623795 -5.78E-06
    40 OT DIIS     0.80E-01    6.1     0.00001198      -901.9639671642 -4.78E-06
    41 OT DIIS     0.80E-01    6.1     0.00001124      -901.9639709569 -3.79E-06
    42 OT DIIS     0.80E-01    6.1     0.00001054      -901.9639744214 -3.46E-06
    43 OT DIIS     0.80E-01    6.1     0.00000988      -901.9639775318 -3.11E-06

  *** SCF run converged in    43 steps ***


  Electronic density on regular grids:       -407.9999985426        0.0000014574
  Core density on regular grids:              407.9999999754       -0.0000000246
  Total charge density on r-space grids:        0.0000014328
  Total charge density g-space grids:           0.0000014328

  Overlap energy of the core charge distribution:               0.00000098230592
  Self energy of the core charge distribution:              -2342.23014539452743
  Core Hamiltonian energy:                                    700.17559984558579
  Hartree energy:                                             959.03803030437075
  Exchange-correlation energy:                               -218.94746326950835

  Total energy:                                              -901.96397753177314

 ENERGY| Total FORCE_EVAL ( QS ) energy [hartree]           -901.963980403723326

 Number of electrons:                                                        408
 Number of occupied orbitals:                                                204
 Number of molecular orbitals:                                               204

 Number of orbital functions:                                                314
 Number of independent orbital functions:                                    314

 Extrapolation method: ASPC


 SCF WAVEFUNCTION OPTIMIZATION

  ----------------------------------- OT ---------------------------------------
  Minimizer      : DIIS                : direct inversion
                                         in the iterative subspace
                                         using   7 DIIS vectors
                                         safer DIIS on
  Preconditioner : FULL_SINGLE_INVERSE : inversion of 
                                         H + eS - 2*(Sc)(c^T*H*c+const)(Sc)^T
  Precond_solver : DEFAULT
  stepsize       :    0.08000000                  energy_gap     :    0.08000000
  eps_taylor     :   0.10000E-15                  max_taylor     :             4
  ----------------------------------- OT ---------------------------------------

  Step     Update method      Time    Convergence         Total energy    Change
  ------------------------------------------------------------------------------
     1 OT DIIS     0.80E-01    4.9     0.00455939      -902.0142042556 -9.02E+02
     2 OT DIIS     0.80E-01    6.1     0.00218537      -902.0720665361 -5.79E-02
     3 OT DIIS     0.80E-01    6.1     0.00118142      -902.0854459480 -1.34E-02
     4 OT DIIS     0.80E-01    6.1     0.00044273      -902.0925711780 -7.13E-03
     5 OT DIIS     0.80E-01    6.1     0.00018191      -902.0936629652 -1.09E-03
     6 OT DIIS     0.80E-01    6.1     0.00007568      -902.0938252273 -1.62E-04
     7 OT DIIS     0.80E-01    6.1     0.00003392      -902.0938537465 -2.85E-05
     8 OT DIIS     0.80E-01    6.1     0.00001336      -902.0938601665 -6.42E-06
     9 OT DIIS     0.80E-01    6.1     0.00000597      -902.0938611474 -9.81E-07

  *** SCF run converged in     9 steps ***


  Electronic density on regular grids:       -407.9999987143        0.0000012857
  Core density on regular grids:              407.9999999750       -0.0000000250
  Total charge density on r-space grids:        0.0000012607
  Total charge density g-space grids:           0.0000012607

  Overlap energy of the core charge distribution:               0.00000079644406
  Self energy of the core charge distribution:              -2342.23014539452743
  Core Hamiltonian energy:                                    697.20505830017407
  Hartree energy:                                             961.08408849216551
  Exchange-correlation energy:                               -218.15286334168283

  Total energy:                                              -902.09386114742654

 ENERGY| Total FORCE_EVAL ( QS ) energy [hartree]           -902.093861340933813

 OPT| **************************************************************************
 OPT| Step number                                                              1
 OPT| Optimization method                                                  LBFGS
 OPT| Total energy [hartree]                                     -902.0938613409
 OPT| Effective energy change [hartree]                            -0.1298809372
 OPT| Decrease in energy                                                     YES
 OPT| Used time [s]                                                      333.105
 OPT|
 OPT| Maximum step size                                             0.1869281779
 OPT| Convergence limit for maximum step size                       0.0030000000
 OPT| Maximum step size is converged                                          NO
 OPT|
 OPT| RMS step size                                                 0.0601929265
 OPT| Convergence limit for RMS step size                           0.0015000000
 OPT| RMS step size is converged                                              NO
 OPT|
 OPT| Maximum gradient                                              0.1128976316
 OPT| Convergence limit for maximum gradient                        0.0010000000
 OPT| Maximum gradient is converged                                           NO
 OPT|
 OPT| RMS gradient                                                  0.0274834228
 OPT| Convergence limit for RMS gradient                            0.0003000000
 OPT| RMS gradient is converged                                               NO
 OPT| **************************************************************************
 OPT| Estimated peak process memory after this step [MiB]                   1707

 --------------------------
 OPTIMIZATION STEP:      2
 --------------------------

 Number of electrons:                                                        408
 Number of occupied orbitals:                                                204
 Number of molecular orbitals:                                               204

 Number of orbital functions:                                                314
 Number of independent orbital functions:                                    314

 Extrapolation method: ASPC


 SCF WAVEFUNCTION OPTIMIZATION

  ----------------------------------- OT ---------------------------------------
  Minimizer      : DIIS                : direct inversion
                                         in the iterative subspace
                                         using   7 DIIS vectors
                                         safer DIIS on
  Preconditioner : FULL_SINGLE_INVERSE : inversion of 
                                         H + eS - 2*(Sc)(c^T*H*c+const)(Sc)^T
  Precond_solver : DEFAULT
  stepsize       :    0.08000000                  energy_gap     :    0.08000000
  eps_taylor     :   0.10000E-15                  max_taylor     :             4
  ----------------------------------- OT ---------------------------------------

  Step     Update method      Time    Convergence         Total energy    Change
  ------------------------------------------------------------------------------
     1 OT DIIS     0.80E-01    4.8     0.00582144      -902.0927631912 -9.02E+02
     2 OT DIIS     0.80E-01    6.1     0.00281910      -902.1773030532 -8.45E-02
     3 OT DIIS     0.80E-01    6.1     0.00136951      -902.1964019005 -1.91E-02
     4 OT DIIS     0.80E-01    6.1     0.00051959      -902.2055920700 -9.19E-03
     5 OT DIIS     0.80E-01    6.1     0.00019506      -902.2071254940 -1.53E-03
     6 OT DIIS     0.80E-01    6.1     0.00008377      -902.2073129534 -1.87E-04
     7 OT DIIS     0.80E-01    6.1     0.00003508      -902.2073495527 -3.66E-05
     8 OT DIIS     0.80E-01    6.1     0.00001404      -902.2073564107 -6.86E-06
     9 OT DIIS     0.80E-01    6.1     0.00000645      -902.2073574851 -1.07E-06

  *** SCF run converged in     9 steps ***


  Electronic density on regular grids:       -407.9999990231        0.0000009769
  Core density on regular grids:              407.9999999751       -0.0000000249
  Total charge density on r-space grids:        0.0000009520
  Total charge density g-space grids:           0.0000009520

  Overlap energy of the core charge distribution:               0.00000051335613
  Self energy of the core charge distribution:              -2342.23014539452743
  Core Hamiltonian energy:                                    696.20867777328851
  Hartree energy:                                             961.81327018570039
  Exchange-correlation energy:                               -217.99916056290294

  Total energy:                                              -902.20735748508548

 ENERGY| Total FORCE_EVAL ( QS ) energy [hartree]           -902.207357715860098

 OPT| **************************************************************************
 OPT| Step number                                                              2
 OPT| Optimization method                                                  LBFGS
 OPT| Total energy [hartree]                                     -902.2073577159
 OPT| Effective energy change [hartree]                            -0.1134963749
 OPT| Decrease in energy                                                     YES
 OPT| Used time [s]                                                       62.430
 OPT|
 OPT| Maximum step size                                             0.0930010258
 OPT| Convergence limit for maximum step size                       0.0030000000
 OPT| Maximum step size is converged                                          NO
 OPT|
 OPT| RMS step size                                                 0.0210598416
 OPT| Convergence limit for RMS step size                           0.0015000000
 OPT| RMS step size is converged                                              NO
 OPT|
 OPT| Maximum gradient                                              0.0500438779
 OPT| Convergence limit for maximum gradient                        0.0010000000
 OPT| Maximum gradient is converged                                           NO
 OPT|
 OPT| RMS gradient                                                  0.0153642480
 OPT| Convergence limit for RMS gradient                            0.0003000000
 OPT| RMS gradient is converged                                               NO
 OPT| **************************************************************************
 OPT| Estimated peak process memory after this step [MiB]                   1711

 --------------------------
 OPTIMIZATION STEP:      3
 --------------------------

 Number of electrons:                                                        408
 Number of occupied orbitals:                                                204
 Number of molecular orbitals:                                               204

 Number of orbital functions:                                                314
 Number of independent orbital functions:                                    314

 Extrapolation method: ASPC


 SCF WAVEFUNCTION OPTIMIZATION

  ----------------------------------- OT ---------------------------------------
  Minimizer      : DIIS                : direct inversion
                                         in the iterative subspace
                                         using   7 DIIS vectors
                                         safer DIIS on
  Preconditioner : FULL_SINGLE_INVERSE : inversion of 
                                         H + eS - 2*(Sc)(c^T*H*c+const)(Sc)^T
  Precond_solver : DEFAULT
  stepsize       :    0.08000000                  energy_gap     :    0.08000000
  eps_taylor     :   0.10000E-15                  max_taylor     :             4
  ----------------------------------- OT ---------------------------------------

  Step     Update method      Time    Convergence         Total energy    Change
  ------------------------------------------------------------------------------
     1 OT DIIS     0.80E-01    4.8     0.00317001      -902.2781776385 -9.02E+02
     2 OT DIIS     0.80E-01    6.1     0.00154518      -902.3089808236 -3.08E-02
     3 OT DIIS     0.80E-01    6.1     0.00088544      -902.3168787898 -7.90E-03
     4 OT DIIS     0.80E-01    6.1     0.00031195      -902.3211485682 -4.27E-03
     5 OT DIIS     0.80E-01    6.1     0.00011627      -902.3217439504 -5.95E-04
     6 OT DIIS     0.80E-01    6.1     0.00004992      -902.3218135087 -6.96E-05
     7 OT DIIS     0.80E-01    6.1     0.00002130      -902.3218269183 -1.34E-05
     8 OT DIIS     0.80E-01    6.1     0.00000794      -902.3218295723 -2.65E-06

  *** SCF run converged in     8 steps ***


  Electronic density on regular grids:       -408.0000011644       -0.0000011644
  Core density on regular grids:              407.9999999753       -0.0000000247
  Total charge density on r-space grids:       -0.0000011892
  Total charge density g-space grids:          -0.0000011892

  Overlap energy of the core charge distribution:               0.00000036970884
  Self energy of the core charge distribution:              -2342.23014539452743
  Core Hamiltonian energy:                                    693.57093517645274
  Hartree energy:                                             963.79551337742123
  Exchange-correlation energy:                               -217.45813310137206

  Total energy:                                              -902.32182957231691

 ENERGY| Total FORCE_EVAL ( QS ) energy [hartree]           -902.321829921379504

 OPT| **************************************************************************
 OPT| Step number                                                              3
 OPT| Optimization method                                                  LBFGS
 OPT| Total energy [hartree]                                     -902.3218299214
 OPT| Effective energy change [hartree]                            -0.1144722055
 OPT| Decrease in energy                                                     YES
 OPT| Used time [s]                                                       56.305
 OPT|
 OPT| Maximum step size                                             0.1440056636
 OPT| Convergence limit for maximum step size                       0.0030000000
 OPT| Maximum step size is converged                                          NO
 OPT|
 OPT| RMS step size                                                 0.0458574810
 OPT| Convergence limit for RMS step size                           0.0015000000
 OPT| RMS step size is converged                                              NO
 OPT|
 OPT| Maximum gradient                                              0.0462531835
 OPT| Convergence limit for maximum gradient                        0.0010000000
 OPT| Maximum gradient is converged                                           NO
 OPT|
 OPT| RMS gradient                                                  0.0135533115
 OPT| Convergence limit for RMS gradient                            0.0003000000
 OPT| RMS gradient is converged                                               NO
 OPT| **************************************************************************
 OPT| Estimated peak process memory after this step [MiB]                   1721

 --------------------------
 OPTIMIZATION STEP:      4
 --------------------------

 Number of electrons:                                                        408
 Number of occupied orbitals:                                                204
 Number of molecular orbitals:                                               204

 Number of orbital functions:                                                314
 Number of independent orbital functions:                                    314

 Extrapolation method: ASPC


 SCF WAVEFUNCTION OPTIMIZATION

  ----------------------------------- OT ---------------------------------------
  Minimizer      : DIIS                : direct inversion
                                         in the iterative subspace
                                         using   7 DIIS vectors
                                         safer DIIS on
  Preconditioner : FULL_SINGLE_INVERSE : inversion of 
                                         H + eS - 2*(Sc)(c^T*H*c+const)(Sc)^T
  Precond_solver : DEFAULT
  stepsize       :    0.08000000                  energy_gap     :    0.08000000
  eps_taylor     :   0.10000E-15                  max_taylor     :             4
  ----------------------------------- OT ---------------------------------------

  Step     Update method      Time    Convergence         Total energy    Change
  ------------------------------------------------------------------------------
     1 OT DIIS     0.80E-01    4.8     0.00232417      -902.4038618941 -9.02E+02
     2 OT DIIS     0.80E-01    6.1     0.00121064      -902.4159760817 -1.21E-02
     3 OT DIIS     0.80E-01    6.0     0.00052465      -902.4189189549 -2.94E-03
     4 OT DIIS     0.80E-01    6.1     0.00023915      -902.4200847475 -1.17E-03
     5 OT DIIS     0.80E-01    6.1     0.00011881      -902.4203492357 -2.64E-04
     6 OT DIIS     0.80E-01    6.1     0.00004422      -902.4204036430 -5.44E-05
     7 OT DIIS     0.80E-01    6.1     0.00001938      -902.4204125628 -8.92E-06
     8 OT DIIS     0.80E-01    6.0     0.00000831      -902.4204144735 -1.91E-06

  *** SCF run converged in     8 steps ***


  Electronic density on regular grids:       -407.9999985310        0.0000014690
  Core density on regular grids:              407.9999999752       -0.0000000248
  Total charge density on r-space grids:        0.0000014442
  Total charge density g-space grids:           0.0000014442

  Overlap energy of the core charge distribution:               0.00000027082019
  Self energy of the core charge distribution:              -2342.23014539452743
  Core Hamiltonian energy:                                    690.01725215004603
  Hartree energy:                                             966.42439979461130
  Exchange-correlation energy:                               -216.63192129443405

  Total energy:                                              -902.42041447348390

 ENERGY| Total FORCE_EVAL ( QS ) energy [hartree]           -902.420414821534450

 OPT| **************************************************************************
 OPT| Step number                                                              4
 OPT| Optimization method                                                  LBFGS
 OPT| Total energy [hartree]                                     -902.4204148215
 OPT| Effective energy change [hartree]                            -0.0985849002
 OPT| Decrease in energy                                                     YES
 OPT| Used time [s]                                                       56.211
 OPT|
 OPT| Maximum step size                                             0.2189169849
 OPT| Convergence limit for maximum step size                       0.0030000000
 OPT| Maximum step size is converged                                          NO
 OPT|
 OPT| RMS step size                                                 0.0595920416
 OPT| Convergence limit for RMS step size                           0.0015000000
 OPT| RMS step size is converged                                              NO
 OPT|
 OPT| Maximum gradient                                              0.0983895093
 OPT| Convergence limit for maximum gradient                        0.0010000000
 OPT| Maximum gradient is converged                                           NO
 OPT|
 OPT| RMS gradient                                                  0.0161177617
 OPT| Convergence limit for RMS gradient                            0.0003000000
 OPT| RMS gradient is converged                                               NO
 OPT| **************************************************************************
 OPT| Estimated peak process memory after this step [MiB]                   1728

 --------------------------
 OPTIMIZATION STEP:      5
 --------------------------

 Number of electrons:                                                        408
 Number of occupied orbitals:                                                204
 Number of molecular orbitals:                                               204

 Number of orbital functions:                                                314
 Number of independent orbital functions:                                    314

 Extrapolation method: ASPC


 SCF WAVEFUNCTION OPTIMIZATION

  ----------------------------------- OT ---------------------------------------
  Minimizer      : DIIS                : direct inversion
                                         in the iterative subspace
                                         using   7 DIIS vectors
                                         safer DIIS on
  Preconditioner : FULL_SINGLE_INVERSE : inversion of 
                                         H + eS - 2*(Sc)(c^T*H*c+const)(Sc)^T
  Precond_solver : DEFAULT
  stepsize       :    0.08000000                  energy_gap     :    0.08000000
  eps_taylor     :   0.10000E-15                  max_taylor     :             4
  ----------------------------------- OT ---------------------------------------

  Step     Update method      Time    Convergence         Total energy    Change
  ------------------------------------------------------------------------------
     1 OT DIIS     0.80E-01    4.8     0.00264390      -902.4840332719 -9.02E+02
     2 OT DIIS     0.80E-01    6.0     0.00145208      -902.5056308458 -2.16E-02
     3 OT DIIS     0.80E-01    6.0     0.00088680      -902.5116055836 -5.97E-03
     4 OT DIIS     0.80E-01    6.0     0.00032360      -902.5151856234 -3.58E-03
     5 OT DIIS     0.80E-01    6.0     0.00014529      -902.5157002341 -5.15E-04
     6 OT DIIS     0.80E-01    6.0     0.00006331      -902.5157872128 -8.70E-05
     7 OT DIIS     0.80E-01    6.0     0.00002703      -902.5158074452 -2.02E-05
     8 OT DIIS     0.80E-01    6.0     0.00001120      -902.5158114463 -4.00E-06
     9 OT DIIS     0.80E-01    6.0     0.00000511      -902.5158120786 -6.32E-07

  *** SCF run converged in     9 steps ***


  Electronic density on regular grids:       -407.9999994485        0.0000005515
  Core density on regular grids:              407.9999999749       -0.0000000251
  Total charge density on r-space grids:        0.0000005264
  Total charge density g-space grids:           0.0000005264

  Overlap energy of the core charge distribution:               0.00000008643280
  Self energy of the core charge distribution:              -2342.23014539452743
  Core Hamiltonian energy:                                    684.36360402849596
  Hartree energy:                                             970.59676350727682
  Exchange-correlation energy:                               -215.24603430628616

  Total energy:                                              -902.51581207860795

 ENERGY| Total FORCE_EVAL ( QS ) energy [hartree]           -902.515812190316069

 OPT| **************************************************************************
 OPT| Step number                                                              5
 OPT| Optimization method                                                  LBFGS
 OPT| Total energy [hartree]                                     -902.5158121903
 OPT| Effective energy change [hartree]                            -0.0953973688
 OPT| Decrease in energy                                                     YES
 OPT| Used time [s]                                                       62.118
 OPT|
 OPT| Maximum step size                                             0.4015226491
 OPT| Convergence limit for maximum step size                       0.0030000000
 OPT| Maximum step size is converged                                          NO
 OPT|
 OPT| RMS step size                                                 0.1082751548
 OPT| Convergence limit for RMS step size                           0.0015000000
 OPT| RMS step size is converged                                              NO
 OPT|
 OPT| Maximum gradient                                              0.0771076890
 OPT| Convergence limit for maximum gradient                        0.0010000000
 OPT| Maximum gradient is converged                                           NO
 OPT|
 OPT| RMS gradient                                                  0.0147118352
 OPT| Convergence limit for RMS gradient                            0.0003000000
 OPT| RMS gradient is converged                                               NO
 OPT| **************************************************************************
 OPT| Estimated peak process memory after this step [MiB]                   1732

 --------------------------
 OPTIMIZATION STEP:      6
 --------------------------

 Number of electrons:                                                        408
 Number of occupied orbitals:                                                204
 Number of molecular orbitals:                                               204

 Number of orbital functions:                                                314
 Number of independent orbital functions:                                    314

 Extrapolation method: ASPC


 SCF WAVEFUNCTION OPTIMIZATION

  ----------------------------------- OT ---------------------------------------
  Minimizer      : DIIS                : direct inversion
                                         in the iterative subspace
                                         using   7 DIIS vectors
                                         safer DIIS on
  Preconditioner : FULL_SINGLE_INVERSE : inversion of 
                                         H + eS - 2*(Sc)(c^T*H*c+const)(Sc)^T
  Precond_solver : DEFAULT
  stepsize       :    0.08000000                  energy_gap     :    0.08000000
  eps_taylor     :   0.10000E-15                  max_taylor     :             4
  ----------------------------------- OT ---------------------------------------

  Step     Update method      Time    Convergence         Total energy    Change
  ------------------------------------------------------------------------------
     1 OT DIIS     0.80E-01    4.8     0.00723009      -902.3840615865 -9.02E+02
     2 OT DIIS     0.80E-01    6.0     0.00458143      -902.5200000440 -1.36E-01
     3 OT DIIS     0.80E-01    6.0     0.00326749      -902.5525430043 -3.25E-02
     4 OT DIIS     0.80E-01    6.0     0.00190028      -902.5723452963 -1.98E-02
     5 OT DIIS     0.80E-01    6.0     0.00085700      -902.5801445144 -7.80E-03
     6 OT DIIS     0.80E-01    6.0     0.00038012      -902.5819224058 -1.78E-03
     7 OT DIIS     0.80E-01    6.0     0.00017909      -902.5822679289 -3.46E-04
     8 OT DIIS     0.80E-01    6.0     0.00008123      -902.5823618169 -9.39E-05
     9 OT DIIS     0.80E-01    6.0     0.00003766      -902.5823842624 -2.24E-05
    10 OT DIIS     0.80E-01    6.0     0.00001945      -902.5823886307 -4.37E-06
    11 OT DIIS     0.80E-01    6.0     0.00001101      -902.5823896831 -1.05E-06
    12 OT DIIS     0.80E-01    6.0     0.00000622      -902.5823900152 -3.32E-07

  *** SCF run converged in    12 steps ***


  Electronic density on regular grids:       -407.9999995820        0.0000004180
  Core density on regular grids:              407.9999999747       -0.0000000253
  Total charge density on r-space grids:        0.0000003926
  Total charge density g-space grids:           0.0000003926

  Overlap energy of the core charge distribution:               0.00000009527419
  Self energy of the core charge distribution:              -2342.23014539452743
  Core Hamiltonian energy:                                    683.36159849105957
  Hartree energy:                                             971.31691866202345
  Exchange-correlation energy:                               -215.03076186904696

  Total energy:                                              -902.58239001521724

 ENERGY| Total FORCE_EVAL ( QS ) energy [hartree]           -902.582390106241064

 OPT| **************************************************************************
 OPT| Step number                                                              6
 OPT| Optimization method                                                  LBFGS
 OPT| Total energy [hartree]                                     -902.5823901062
 OPT| Effective energy change [hartree]                            -0.0665779159
 OPT| Decrease in energy                                                     YES
 OPT| Used time [s]                                                       80.229
 OPT|
 OPT| Maximum step size                                             0.1841639892
 OPT| Convergence limit for maximum step size                       0.0030000000
 OPT| Maximum step size is converged                                          NO
 OPT|
 OPT| RMS step size                                                 0.0435623646
 OPT| Convergence limit for RMS step size                           0.0015000000
 OPT| RMS step size is converged                                              NO
 OPT|
 OPT| Maximum gradient                                              0.0499919603
 OPT| Convergence limit for maximum gradient                        0.0010000000
 OPT| Maximum gradient is converged                                           NO
 OPT|
 OPT| RMS gradient                                                  0.0100438603
 OPT| Convergence limit for RMS gradient                            0.0003000000
 OPT| RMS gradient is converged                                               NO
 OPT| **************************************************************************
 OPT| Estimated peak process memory after this step [MiB]                   1736

 --------------------------
 OPTIMIZATION STEP:      7
 --------------------------

 Number of electrons:                                                        408
 Number of occupied orbitals:                                                204
 Number of molecular orbitals:                                               204

 Number of orbital functions:                                                314
 Number of independent orbital functions:                                    314

 Extrapolation method: ASPC


 SCF WAVEFUNCTION OPTIMIZATION

  ----------------------------------- OT ---------------------------------------
  Minimizer      : DIIS                : direct inversion
                                         in the iterative subspace
                                         using   7 DIIS vectors
                                         safer DIIS on
  Preconditioner : FULL_SINGLE_INVERSE : inversion of 
                                         H + eS - 2*(Sc)(c^T*H*c+const)(Sc)^T
  Precond_solver : DEFAULT
  stepsize       :    0.08000000                  energy_gap     :    0.08000000
  eps_taylor     :   0.10000E-15                  max_taylor     :             4
  ----------------------------------- OT ---------------------------------------

  Step     Update method      Time    Convergence         Total energy    Change
  ------------------------------------------------------------------------------
     1 OT DIIS     0.80E-01    4.8     0.00496999      -902.5181061089 -9.03E+02
     2 OT DIIS     0.80E-01    6.0     0.00289007      -902.5897012974 -7.16E-02
     3 OT DIIS     0.80E-01    6.0     0.00172160      -902.6092574357 -1.96E-02
     4 OT DIIS     0.80E-01    6.0     0.00066960      -902.6212628342 -1.20E-02
     5 OT DIIS     0.80E-01    6.0     0.00030056      -902.6230617853 -1.80E-03
     6 OT DIIS     0.80E-01    6.0     0.00012936      -902.6233654919 -3.04E-04
     7 OT DIIS     0.80E-01    6.0     0.00005694      -902.6234312966 -6.58E-05
     8 OT DIIS     0.80E-01    6.0     0.00002484      -902.6234451172 -1.38E-05
     9 OT DIIS     0.80E-01    6.0     0.00001336      -902.6234474976 -2.38E-06
    10 OT DIIS     0.80E-01    6.0     0.00000652      -902.6234481529 -6.55E-07

  *** SCF run converged in    10 steps ***


  Electronic density on regular grids:       -407.9999986677        0.0000013323
  Core density on regular grids:              407.9999999747       -0.0000000253
  Total charge density on r-space grids:        0.0000013069
  Total charge density g-space grids:           0.0000013069

  Overlap energy of the core charge distribution:               0.00000008438853
  Self energy of the core charge distribution:              -2342.23014539452743
  Core Hamiltonian energy:                                    683.76992382194601
  Hartree energy:                                             970.96275875190895
  Exchange-correlation energy:                               -215.12598541663124

  Total energy:                                              -902.62344815291522

 ENERGY| Total FORCE_EVAL ( QS ) energy [hartree]           -902.623448331374334

 OPT| **************************************************************************
 OPT| Step number                                                              7
 OPT| Optimization method                                                  LBFGS
 OPT| Total energy [hartree]                                     -902.6234483314
 OPT| Effective energy change [hartree]                            -0.0410582251
 OPT| Decrease in energy                                                     YES
 OPT| Used time [s]                                                       68.096
 OPT|
 OPT| Maximum step size                                             0.0858525728
 OPT| Convergence limit for maximum step size                       0.0030000000
 OPT| Maximum step size is converged                                          NO
 OPT|
 OPT| RMS step size                                                 0.0266089432
 OPT| Convergence limit for RMS step size                           0.0015000000
 OPT| RMS step size is converged                                              NO
 OPT|
 OPT| Maximum gradient                                              0.0374107240
 OPT| Convergence limit for maximum gradient                        0.0010000000
 OPT| Maximum gradient is converged                                           NO
 OPT|
 OPT| RMS gradient                                                  0.0075684656
 OPT| Convergence limit for RMS gradient                            0.0003000000
 OPT| RMS gradient is converged                                               NO
 OPT| **************************************************************************
 OPT| Estimated peak process memory after this step [MiB]                   1740

 --------------------------
 OPTIMIZATION STEP:      8
 --------------------------

 Number of electrons:                                                        408
 Number of occupied orbitals:                                                204
 Number of molecular orbitals:                                               204

 Number of orbital functions:                                                314
 Number of independent orbital functions:                                    314

 Extrapolation method: ASPC


 SCF WAVEFUNCTION OPTIMIZATION

  ----------------------------------- OT ---------------------------------------
  Minimizer      : DIIS                : direct inversion
                                         in the iterative subspace
                                         using   7 DIIS vectors
                                         safer DIIS on
  Preconditioner : FULL_SINGLE_INVERSE : inversion of 
                                         H + eS - 2*(Sc)(c^T*H*c+const)(Sc)^T
  Precond_solver : DEFAULT
  stepsize       :    0.08000000                  energy_gap     :    0.08000000
  eps_taylor     :   0.10000E-15                  max_taylor     :             4
  ----------------------------------- OT ---------------------------------------

  Step     Update method      Time    Convergence         Total energy    Change
  ------------------------------------------------------------------------------
     1 OT DIIS     0.80E-01    4.8     0.00220723      -902.6335026938 -9.03E+02
     2 OT DIIS     0.80E-01    6.0     0.00145593      -902.6472763295 -1.38E-02
     3 OT DIIS     0.80E-01    6.0     0.00094040      -902.6510146709 -3.74E-03
     4 OT DIIS     0.80E-01    6.0     0.00041969      -902.6536018086 -2.59E-03
     5 OT DIIS     0.80E-01    6.0     0.00021605      -902.6540770813 -4.75E-04
     6 OT DIIS     0.80E-01    6.0     0.00010261      -902.6541942137 -1.17E-04
     7 OT DIIS     0.80E-01    6.0     0.00004375      -902.6542258456 -3.16E-05
     8 OT DIIS     0.80E-01    6.0     0.00002154      -902.6542330338 -7.19E-06
     9 OT DIIS     0.80E-01    6.0     0.00001050      -902.6542345768 -1.54E-06
    10 OT DIIS     0.80E-01    6.0     0.00000578      -902.6542349894 -4.13E-07

  *** SCF run converged in    10 steps ***


  Electronic density on regular grids:       -407.9999974498        0.0000025502
  Core density on regular grids:              407.9999999748       -0.0000000252
  Total charge density on r-space grids:        0.0000025249
  Total charge density g-space grids:           0.0000025249

  Overlap energy of the core charge distribution:               0.00000006112412
  Self energy of the core charge distribution:              -2342.23014539452743
  Core Hamiltonian energy:                                    683.29555383321554
  Hartree energy:                                             971.26301476637275
  Exchange-correlation energy:                               -214.98265825555009

  Total energy:                                              -902.65423498936525

 ENERGY| Total FORCE_EVAL ( QS ) energy [hartree]           -902.654235096928005

 OPT| **************************************************************************
 OPT| Step number                                                              8
 OPT| Optimization method                                                  LBFGS
 OPT| Total energy [hartree]                                     -902.6542350969
 OPT| Effective energy change [hartree]                            -0.0307867656
 OPT| Decrease in energy                                                     YES
 OPT| Used time [s]                                                       67.980
 OPT|
 OPT| Maximum step size                                             0.1462080274
 OPT| Convergence limit for maximum step size                       0.0030000000
 OPT| Maximum step size is converged                                          NO
 OPT|
 OPT| RMS step size                                                 0.0466411939
 OPT| Convergence limit for RMS step size                           0.0015000000
 OPT| RMS step size is converged                                              NO
 OPT|
 OPT| Maximum gradient                                              0.0241067280
 OPT| Convergence limit for maximum gradient                        0.0010000000
 OPT| Maximum gradient is converged                                           NO
 OPT|
 OPT| RMS gradient                                                  0.0072531549
 OPT| Convergence limit for RMS gradient                            0.0003000000
 OPT| RMS gradient is converged                                               NO
 OPT| **************************************************************************
 OPT| Estimated peak process memory after this step [MiB]                   1740

 --------------------------
 OPTIMIZATION STEP:      9
 --------------------------

 Number of electrons:                                                        408
 Number of occupied orbitals:                                                204
 Number of molecular orbitals:                                               204

 Number of orbital functions:                                                314
 Number of independent orbital functions:                                    314

 Extrapolation method: ASPC


 SCF WAVEFUNCTION OPTIMIZATION

  ----------------------------------- OT ---------------------------------------
  Minimizer      : DIIS                : direct inversion
                                         in the iterative subspace
                                         using   7 DIIS vectors
                                         safer DIIS on
  Preconditioner : FULL_SINGLE_INVERSE : inversion of 
                                         H + eS - 2*(Sc)(c^T*H*c+const)(Sc)^T
  Precond_solver : DEFAULT
  stepsize       :    0.08000000                  energy_gap     :    0.08000000
  eps_taylor     :   0.10000E-15                  max_taylor     :             4
  ----------------------------------- OT ---------------------------------------

  Step     Update method      Time    Convergence         Total energy    Change
  ------------------------------------------------------------------------------
     1 OT DIIS     0.80E-01    4.8     0.00307791      -902.6276880362 -9.03E+02
     2 OT DIIS     0.80E-01    6.0     0.00168775      -902.6594768556 -3.18E-02
     3 OT DIIS     0.80E-01    6.0     0.00109988      -902.6686234143 -9.15E-03
     4 OT DIIS     0.80E-01    6.0     0.00039098      -902.6733270617 -4.70E-03
     5 OT DIIS     0.80E-01    6.0     0.00018741      -902.6739095561 -5.82E-04
     6 OT DIIS     0.80E-01    6.0     0.00009033      -902.6740396753 -1.30E-04
     7 OT DIIS     0.80E-01    6.0     0.00004267      -902.6740741437 -3.45E-05
     8 OT DIIS     0.80E-01    6.0     0.00001938      -902.6740815526 -7.41E-06
     9 OT DIIS     0.80E-01    6.0     0.00001078      -902.6740828923 -1.34E-06
    10 OT DIIS     0.80E-01    6.0     0.00000549      -902.6740833017 -4.09E-07

  *** SCF run converged in    10 steps ***


  Electronic density on regular grids:       -407.9999979948        0.0000020052
  Core density on regular grids:              407.9999999751       -0.0000000249
  Total charge density on r-space grids:        0.0000019803
  Total charge density g-space grids:           0.0000019803

  Overlap energy of the core charge distribution:               0.00000008252539
  Self energy of the core charge distribution:              -2342.23014539452743
  Core Hamiltonian energy:                                    683.57098269484106
  Hartree energy:                                             971.06811669471563
  Exchange-correlation energy:                               -215.08303737921037

  Total energy:                                              -902.67408330165597

 ENERGY| Total FORCE_EVAL ( QS ) energy [hartree]           -902.674083420632087

 OPT| **************************************************************************
 OPT| Step number                                                              9
 OPT| Optimization method                                                  LBFGS
 OPT| Total energy [hartree]                                     -902.6740834206
 OPT| Effective energy change [hartree]                            -0.0198483237
 OPT| Decrease in energy                                                     YES
 OPT| Used time [s]                                                       67.981
 OPT|
 OPT| Maximum step size                                             0.0969223641
 OPT| Convergence limit for maximum step size                       0.0030000000
 OPT| Maximum step size is converged                                          NO
 OPT|
 OPT| RMS step size                                                 0.0275593112
 OPT| Convergence limit for RMS step size                           0.0015000000
 OPT| RMS step size is converged                                              NO
 OPT|
 OPT| Maximum gradient                                              0.0290718131
 OPT| Convergence limit for maximum gradient                        0.0010000000
 OPT| Maximum gradient is converged                                           NO
 OPT|
 OPT| RMS gradient                                                  0.0065152937
 OPT| Convergence limit for RMS gradient                            0.0003000000
 OPT| RMS gradient is converged                                               NO
 OPT| **************************************************************************
 OPT| Estimated peak process memory after this step [MiB]                   1742

 --------------------------
 OPTIMIZATION STEP:     10
 --------------------------

 Number of electrons:                                                        408
 Number of occupied orbitals:                                                204
 Number of molecular orbitals:                                               204

 Number of orbital functions:                                                314
 Number of independent orbital functions:                                    314

 Extrapolation method: ASPC


 SCF WAVEFUNCTION OPTIMIZATION

  ----------------------------------- OT ---------------------------------------
  Minimizer      : DIIS                : direct inversion
                                         in the iterative subspace
                                         using   7 DIIS vectors
                                         safer DIIS on
  Preconditioner : FULL_SINGLE_INVERSE : inversion of 
                                         H + eS - 2*(Sc)(c^T*H*c+const)(Sc)^T
  Precond_solver : DEFAULT
  stepsize       :    0.08000000                  energy_gap     :    0.08000000
  eps_taylor     :   0.10000E-15                  max_taylor     :             4
  ----------------------------------- OT ---------------------------------------

  Step     Update method      Time    Convergence         Total energy    Change
  ------------------------------------------------------------------------------
     1 OT DIIS     0.80E-01    4.8     0.00264146      -902.6609560773 -9.03E+02
     2 OT DIIS     0.80E-01    6.0     0.00149464      -902.6820312878 -2.11E-02
     3 OT DIIS     0.80E-01    6.0     0.00096674      -902.6873413567 -5.31E-03
     4 OT DIIS     0.80E-01    6.0     0.00044064      -902.6904140149 -3.07E-03
     5 OT DIIS     0.80E-01    6.0     0.00021295      -902.6909434974 -5.29E-04
     6 OT DIIS     0.80E-01    6.0     0.00010435      -902.6910751217 -1.32E-04
     7 OT DIIS     0.80E-01    6.0     0.00005040      -902.6911084811 -3.34E-05
     8 OT DIIS     0.80E-01    6.0     0.00002502      -902.6911169787 -8.50E-06
     9 OT DIIS     0.80E-01    6.0     0.00001252      -902.6911187457 -1.77E-06
    10 OT DIIS     0.80E-01    6.0     0.00000670      -902.6911192706 -5.25E-07

  *** SCF run converged in    10 steps ***


  Electronic density on regular grids:       -407.9999985039        0.0000014961
  Core density on regular grids:              407.9999999751       -0.0000000249
  Total charge density on r-space grids:        0.0000014712
  Total charge density g-space grids:           0.0000014712

  Overlap energy of the core charge distribution:               0.00000006977986
  Self energy of the core charge distribution:              -2342.23014539452743
  Core Hamiltonian energy:                                    683.32492125893521
  Hartree energy:                                             971.24146518421344
  Exchange-correlation energy:                               -215.02736038899835

  Total energy:                                              -902.69111927059691

 ENERGY| Total FORCE_EVAL ( QS ) energy [hartree]           -902.691119410464353

 OPT| **************************************************************************
 OPT| Step number                                                             10
 OPT| Optimization method                                                  LBFGS
 OPT| Total energy [hartree]                                     -902.6911194105
 OPT| Effective energy change [hartree]                            -0.0170359898
 OPT| Decrease in energy                                                     YES
 OPT| Used time [s]                                                       67.950
 OPT|
 OPT| Maximum step size                                             0.0706214862
 OPT| Convergence limit for maximum step size                       0.0030000000
 OPT| Maximum step size is converged                                          NO
 OPT|
 OPT| RMS step size                                                 0.0225404336
 OPT| Convergence limit for RMS step size                           0.0015000000
 OPT| RMS step size is converged                                              NO
 OPT|
 OPT| Maximum gradient                                              0.0219148972
 OPT| Convergence limit for maximum gradient                        0.0010000000
 OPT| Maximum gradient is converged                                           NO
 OPT|
 OPT| RMS gradient                                                  0.0053312268
 OPT| Convergence limit for RMS gradient                            0.0003000000
 OPT| RMS gradient is converged                                               NO
 OPT| **************************************************************************
 OPT| Estimated peak process memory after this step [MiB]                   1748

 --------------------------
 OPTIMIZATION STEP:     11
 --------------------------

 Number of electrons:                                                        408
 Number of occupied orbitals:                                                204
 Number of molecular orbitals:                                               204

 Number of orbital functions:                                                314
 Number of independent orbital functions:                                    314

 Extrapolation method: ASPC


 SCF WAVEFUNCTION OPTIMIZATION

  ----------------------------------- OT ---------------------------------------
  Minimizer      : DIIS                : direct inversion
                                         in the iterative subspace
                                         using   7 DIIS vectors
                                         safer DIIS on
  Preconditioner : FULL_SINGLE_INVERSE : inversion of 
                                         H + eS - 2*(Sc)(c^T*H*c+const)(Sc)^T
  Precond_solver : DEFAULT
  stepsize       :    0.08000000                  energy_gap     :    0.08000000
  eps_taylor     :   0.10000E-15                  max_taylor     :             4
  ----------------------------------- OT ---------------------------------------

  Step     Update method      Time    Convergence         Total energy    Change
  ------------------------------------------------------------------------------
     1 OT DIIS     0.80E-01    4.8     0.00134344      -902.7014925085 -9.03E+02
     2 OT DIIS     0.80E-01    6.0     0.00072252      -902.7075907756 -6.10E-03
     3 OT DIIS     0.80E-01    6.0     0.00047254      -902.7093412960 -1.75E-03
     4 OT DIIS     0.80E-01    6.0     0.00018089      -902.7102024758 -8.61E-04
     5 OT DIIS     0.80E-01    6.0     0.00008638      -902.7103331111 -1.31E-04
     6 OT DIIS     0.80E-01    6.0     0.00004175      -902.7103608871 -2.78E-05
     7 OT DIIS     0.80E-01    6.0     0.00001922      -902.7103667414 -5.85E-06
     8 OT DIIS     0.80E-01    6.0     0.00000907      -902.7103681184 -1.38E-06

  *** SCF run converged in     8 steps ***


  Electronic density on regular grids:       -407.9999982580        0.0000017420
  Core density on regular grids:              407.9999999751       -0.0000000249
  Total charge density on r-space grids:        0.0000017171
  Total charge density g-space grids:           0.0000017171

  Overlap energy of the core charge distribution:               0.00000006924679
  Self energy of the core charge distribution:              -2342.23014539452743
  Core Hamiltonian energy:                                    682.99653448516722
  Hartree energy:                                             971.47815203478490
  Exchange-correlation energy:                               -214.95490931310187

  Total energy:                                              -902.71036811843067

 ENERGY| Total FORCE_EVAL ( QS ) energy [hartree]           -902.710368413389119

 OPT| **************************************************************************
 OPT| Step number                                                             11
 OPT| Optimization method                                                  LBFGS
 OPT| Total energy [hartree]                                     -902.7103684134
 OPT| Effective energy change [hartree]                            -0.0192490029
 OPT| Decrease in energy                                                     YES
 OPT| Used time [s]                                                       55.908
 OPT|
 OPT| Maximum step size                                             0.1189131352
 OPT| Convergence limit for maximum step size                       0.0030000000
 OPT| Maximum step size is converged                                          NO
 OPT|
 OPT| RMS step size                                                 0.0396769805
 OPT| Convergence limit for RMS step size                           0.0015000000
 OPT| RMS step size is converged                                              NO
 OPT|
 OPT| Maximum gradient                                              0.0159481175
 OPT| Convergence limit for maximum gradient                        0.0010000000
 OPT| Maximum gradient is converged                                           NO
 OPT|
 OPT| RMS gradient                                                  0.0052005630
 OPT| Convergence limit for RMS gradient                            0.0003000000
 OPT| RMS gradient is converged                                               NO
 OPT| **************************************************************************
 OPT| Estimated peak process memory after this step [MiB]                   1777

 --------------------------
 OPTIMIZATION STEP:     12
 --------------------------

 Number of electrons:                                                        408
 Number of occupied orbitals:                                                204
 Number of molecular orbitals:                                               204

 Number of orbital functions:                                                314
 Number of independent orbital functions:                                    314

 Extrapolation method: ASPC


 SCF WAVEFUNCTION OPTIMIZATION

  ----------------------------------- OT ---------------------------------------
  Minimizer      : DIIS                : direct inversion
                                         in the iterative subspace
                                         using   7 DIIS vectors
                                         safer DIIS on
  Preconditioner : FULL_SINGLE_INVERSE : inversion of 
                                         H + eS - 2*(Sc)(c^T*H*c+const)(Sc)^T
  Precond_solver : DEFAULT
  stepsize       :    0.08000000                  energy_gap     :    0.08000000
  eps_taylor     :   0.10000E-15                  max_taylor     :             4
  ----------------------------------- OT ---------------------------------------

  Step     Update method      Time    Convergence         Total energy    Change
  ------------------------------------------------------------------------------
     1 OT DIIS     0.80E-01    4.8     0.00205419      -902.7013207850 -9.03E+02
     2 OT DIIS     0.80E-01    6.0     0.00113385      -902.7146226124 -1.33E-02
     3 OT DIIS     0.80E-01    6.0     0.00080235      -902.7179974413 -3.37E-03
     4 OT DIIS     0.80E-01    6.0     0.00040546      -902.7199474147 -1.95E-03
     5 OT DIIS     0.80E-01    6.0     0.00020165      -902.7203941198 -4.47E-04
     6 OT DIIS     0.80E-01    6.0     0.00009641      -902.7204997371 -1.06E-04
     7 OT DIIS     0.80E-01    6.0     0.00004362      -902.7205248137 -2.51E-05
     8 OT DIIS     0.80E-01    6.0     0.00002039      -902.7205312671 -6.45E-06
     9 OT DIIS     0.80E-01    6.0     0.00000970      -902.7205326779 -1.41E-06

  *** SCF run converged in     9 steps ***


  Electronic density on regular grids:       -407.9999978981        0.0000021019
  Core density on regular grids:              407.9999999750       -0.0000000250
  Total charge density on r-space grids:        0.0000020769
  Total charge density g-space grids:           0.0000020769

  Overlap energy of the core charge distribution:               0.00000007715946
  Self energy of the core charge distribution:              -2342.23014539452743
  Core Hamiltonian energy:                                    682.90493501015897
  Hartree energy:                                             971.54359007870596
  Exchange-correlation energy:                               -214.93891244944132

  Total energy:                                              -902.72053267794445

 ENERGY| Total FORCE_EVAL ( QS ) energy [hartree]           -902.720533039531915

 OPT| **************************************************************************
 OPT| Step number                                                             12
 OPT| Optimization method                                                  LBFGS
 OPT| Total energy [hartree]                                     -902.7205330395
 OPT| Effective energy change [hartree]                            -0.0101646261
 OPT| Decrease in energy                                                     YES
 OPT| Used time [s]                                                       61.978
 OPT|
 OPT| Maximum step size                                             0.1055876090
 OPT| Convergence limit for maximum step size                       0.0030000000
 OPT| Maximum step size is converged                                          NO
 OPT|
 OPT| RMS step size                                                 0.0288165317
 OPT| Convergence limit for RMS step size                           0.0015000000
 OPT| RMS step size is converged                                              NO
 OPT|
 OPT| Maximum gradient                                              0.0335917160
 OPT| Convergence limit for maximum gradient                        0.0010000000
 OPT| Maximum gradient is converged                                           NO
 OPT|
 OPT| RMS gradient                                                  0.0066653204
 OPT| Convergence limit for RMS gradient                            0.0003000000
 OPT| RMS gradient is converged                                               NO
 OPT| **************************************************************************
 OPT| Estimated peak process memory after this step [MiB]                   1777

 --------------------------
 OPTIMIZATION STEP:     13
 --------------------------

 Number of electrons:                                                        408
 Number of occupied orbitals:                                                204
 Number of molecular orbitals:                                               204

 Number of orbital functions:                                                314
 Number of independent orbital functions:                                    314

 Extrapolation method: ASPC


 SCF WAVEFUNCTION OPTIMIZATION

  ----------------------------------- OT ---------------------------------------
  Minimizer      : DIIS                : direct inversion
                                         in the iterative subspace
                                         using   7 DIIS vectors
                                         safer DIIS on
  Preconditioner : FULL_SINGLE_INVERSE : inversion of 
                                         H + eS - 2*(Sc)(c^T*H*c+const)(Sc)^T
  Precond_solver : DEFAULT
  stepsize       :    0.08000000                  energy_gap     :    0.08000000
  eps_taylor     :   0.10000E-15                  max_taylor     :             4
  ----------------------------------- OT ---------------------------------------

  Step     Update method      Time    Convergence         Total energy    Change
  ------------------------------------------------------------------------------
     1 OT DIIS     0.80E-01    4.8     0.00188442      -902.7139809885 -9.03E+02
     2 OT DIIS     0.80E-01    6.0     0.00096528      -902.7252253439 -1.12E-02
     3 OT DIIS     0.80E-01    6.0     0.00064250      -902.7279595799 -2.73E-03
     4 OT DIIS     0.80E-01    6.0     0.00030294      -902.7293421614 -1.38E-03
     5 OT DIIS     0.80E-01    6.0     0.00014164      -902.7296568043 -3.15E-04
     6 OT DIIS     0.80E-01    6.0     0.00006439      -902.7297280015 -7.12E-05
     7 OT DIIS     0.80E-01    6.0     0.00003067      -902.7297422232 -1.42E-05
     8 OT DIIS     0.80E-01    6.0     0.00001494      -902.7297457433 -3.52E-06
     9 OT DIIS     0.80E-01    6.0     0.00000782      -902.7297464892 -7.46E-07

  *** SCF run converged in     9 steps ***


  Electronic density on regular grids:       -407.9999975715        0.0000024285
  Core density on regular grids:              407.9999999750       -0.0000000250
  Total charge density on r-space grids:        0.0000024035
  Total charge density g-space grids:           0.0000024035

  Overlap energy of the core charge distribution:               0.00000006603720
  Self energy of the core charge distribution:              -2342.23014539452743
  Core Hamiltonian energy:                                    682.92168552362375
  Hartree energy:                                             971.51927917561238
  Exchange-correlation energy:                               -214.94056585998584

  Total energy:                                              -902.72974648924014

 ENERGY| Total FORCE_EVAL ( QS ) energy [hartree]           -902.729746727931229

 OPT| **************************************************************************
 OPT| Step number                                                             13
 OPT| Optimization method                                                  LBFGS
 OPT| Total energy [hartree]                                     -902.7297467279
 OPT| Effective energy change [hartree]                            -0.0092136884
 OPT| Decrease in energy                                                     YES
 OPT| Used time [s]                                                       61.918
 OPT|
 OPT| Maximum step size                                             0.0390148945
 OPT| Convergence limit for maximum step size                       0.0030000000
 OPT| Maximum step size is converged                                          NO
 OPT|
 OPT| RMS step size                                                 0.0111287280
 OPT| Convergence limit for RMS step size                           0.0015000000
 OPT| RMS step size is converged                                              NO
 OPT|
 OPT| Maximum gradient                                              0.0183970819
 OPT| Convergence limit for maximum gradient                        0.0010000000
 OPT| Maximum gradient is converged                                           NO
 OPT|
 OPT| RMS gradient                                                  0.0039799347
 OPT| Convergence limit for RMS gradient                            0.0003000000
 OPT| RMS gradient is converged                                               NO
 OPT| **************************************************************************
 OPT| Estimated peak process memory after this step [MiB]                   1777

 --------------------------
 OPTIMIZATION STEP:     14
 --------------------------

 Number of electrons:                                                        408
 Number of occupied orbitals:                                                204
 Number of molecular orbitals:                                               204

 Number of orbital functions:                                                314
 Number of independent orbital functions:                                    314

 Extrapolation method: ASPC


 SCF WAVEFUNCTION OPTIMIZATION

  ----------------------------------- OT ---------------------------------------
  Minimizer      : DIIS                : direct inversion
                                         in the iterative subspace
                                         using   7 DIIS vectors
                                         safer DIIS on
  Preconditioner : FULL_SINGLE_INVERSE : inversion of 
                                         H + eS - 2*(Sc)(c^T*H*c+const)(Sc)^T
  Precond_solver : DEFAULT
  stepsize       :    0.08000000                  energy_gap     :    0.08000000
  eps_taylor     :   0.10000E-15                  max_taylor     :             4
  ----------------------------------- OT ---------------------------------------

  Step     Update method      Time    Convergence         Total energy    Change
  ------------------------------------------------------------------------------
     1 OT DIIS     0.80E-01    4.8     0.00133308      -902.7299778573 -9.03E+02
     2 OT DIIS     0.80E-01    6.0     0.00068940      -902.7357526781 -5.77E-03
     3 OT DIIS     0.80E-01    6.0     0.00049254      -902.7371888955 -1.44E-03
     4 OT DIIS     0.80E-01    6.0     0.00026164      -902.7378898208 -7.01E-04
     5 OT DIIS     0.80E-01    6.0     0.00012054      -902.7380714502 -1.82E-04
     6 OT DIIS     0.80E-01    6.0     0.00005583      -902.7381118038 -4.04E-05
     7 OT DIIS     0.80E-01    6.0     0.00002709      -902.7381210013 -9.20E-06
     8 OT DIIS     0.80E-01    6.0     0.00001403      -902.7381233907 -2.39E-06
     9 OT DIIS     0.80E-01    6.0     0.00000729      -902.7381239255 -5.35E-07

  *** SCF run converged in     9 steps ***


  Electronic density on regular grids:       -407.9999973267        0.0000026733
  Core density on regular grids:              407.9999999750       -0.0000000250
  Total charge density on r-space grids:        0.0000026483
  Total charge density g-space grids:           0.0000026483

  Overlap energy of the core charge distribution:               0.00000007050074
  Self energy of the core charge distribution:              -2342.23014539452743
  Core Hamiltonian energy:                                    683.03151724149393
  Hartree energy:                                             971.42883254144363
  Exchange-correlation energy:                               -214.96832838441190

  Total energy:                                              -902.73812392550099

 ENERGY| Total FORCE_EVAL ( QS ) energy [hartree]           -902.738124083309685

 OPT| **************************************************************************
 OPT| Step number                                                             14
 OPT| Optimization method                                                  LBFGS
 OPT| Total energy [hartree]                                     -902.7381240833
 OPT| Effective energy change [hartree]                            -0.0083773554
 OPT| Decrease in energy                                                     YES
 OPT| Used time [s]                                                       61.907
 OPT|
 OPT| Maximum step size                                             0.0671768895
 OPT| Convergence limit for maximum step size                       0.0030000000
 OPT| Maximum step size is converged                                          NO
 OPT|
 OPT| RMS step size                                                 0.0199800943
 OPT| Convergence limit for RMS step size                           0.0015000000
 OPT| RMS step size is converged                                              NO
 OPT|
 OPT| Maximum gradient                                              0.0108049887
 OPT| Convergence limit for maximum gradient                        0.0010000000
 OPT| Maximum gradient is converged                                           NO
 OPT|
 OPT| RMS gradient                                                  0.0030757640
 OPT| Convergence limit for RMS gradient                            0.0003000000
 OPT| RMS gradient is converged                                               NO
 OPT| **************************************************************************
 OPT| Estimated peak process memory after this step [MiB]                   1789

 --------------------------
 OPTIMIZATION STEP:     15
 --------------------------

 Number of electrons:                                                        408
 Number of occupied orbitals:                                                204
 Number of molecular orbitals:                                               204

 Number of orbital functions:                                                314
 Number of independent orbital functions:                                    314

 Extrapolation method: ASPC


 SCF WAVEFUNCTION OPTIMIZATION

  ----------------------------------- OT ---------------------------------------
  Minimizer      : DIIS                : direct inversion
                                         in the iterative subspace
                                         using   7 DIIS vectors
                                         safer DIIS on
  Preconditioner : FULL_SINGLE_INVERSE : inversion of 
                                         H + eS - 2*(Sc)(c^T*H*c+const)(Sc)^T
  Precond_solver : DEFAULT
  stepsize       :    0.08000000                  energy_gap     :    0.08000000
  eps_taylor     :   0.10000E-15                  max_taylor     :             4
  ----------------------------------- OT ---------------------------------------

  Step     Update method      Time    Convergence         Total energy    Change
  ------------------------------------------------------------------------------
     1 OT DIIS     0.80E-01    4.8     0.00088796      -902.7400932956 -9.03E+02
     2 OT DIIS     0.80E-01    6.0     0.00050118      -902.7424788292 -2.39E-03
     3 OT DIIS     0.80E-01    6.0     0.00032991      -902.7431022921 -6.23E-04
     4 OT DIIS     0.80E-01    6.0     0.00015981      -902.7434785394 -3.76E-04
     5 OT DIIS     0.80E-01    6.0     0.00007749      -902.7435584883 -7.99E-05
     6 OT DIIS     0.80E-01    6.0     0.00003833      -902.7435744306 -1.59E-05
     7 OT DIIS     0.80E-01    6.0     0.00001736      -902.7435785043 -4.07E-06
     8 OT DIIS     0.80E-01    6.0     0.00000832      -902.7435795383 -1.03E-06

  *** SCF run converged in     8 steps ***


  Electronic density on regular grids:       -407.9999971045        0.0000028955
  Core density on regular grids:              407.9999999752       -0.0000000248
  Total charge density on r-space grids:        0.0000028707
  Total charge density g-space grids:           0.0000028707

  Overlap energy of the core charge distribution:               0.00000006708540
  Self energy of the core charge distribution:              -2342.23014539452743
  Core Hamiltonian energy:                                    683.01265703794002
  Hartree energy:                                             971.43583216283832
  Exchange-correlation energy:                               -214.96192341164294

  Total energy:                                              -902.74357953830679

 ENERGY| Total FORCE_EVAL ( QS ) energy [hartree]           -902.743579779794914

 OPT| **************************************************************************
 OPT| Step number                                                             15
 OPT| Optimization method                                                  LBFGS
 OPT| Total energy [hartree]                                     -902.7435797798
 OPT| Effective energy change [hartree]                            -0.0054556965
 OPT| Decrease in energy                                                     YES
 OPT| Used time [s]                                                       55.869
 OPT|
 OPT| Maximum step size                                             0.0710543861
 OPT| Convergence limit for maximum step size                       0.0030000000
 OPT| Maximum step size is converged                                          NO
 OPT|
 OPT| RMS step size                                                 0.0207896611
 OPT| Convergence limit for RMS step size                           0.0015000000
 OPT| RMS step size is converged                                              NO
 OPT|
 OPT| Maximum gradient                                              0.0188219538
 OPT| Convergence limit for maximum gradient                        0.0010000000
 OPT| Maximum gradient is converged                                           NO
 OPT|
 OPT| RMS gradient                                                  0.0036845221
 OPT| Convergence limit for RMS gradient                            0.0003000000
 OPT| RMS gradient is converged                                               NO
 OPT| **************************************************************************
 OPT| Estimated peak process memory after this step [MiB]                   1789

 --------------------------
 OPTIMIZATION STEP:     16
 --------------------------

 Number of electrons:                                                        408
 Number of occupied orbitals:                                                204
 Number of molecular orbitals:                                               204

 Number of orbital functions:                                                314
 Number of independent orbital functions:                                    314

 Extrapolation method: ASPC


 SCF WAVEFUNCTION OPTIMIZATION

  ----------------------------------- OT ---------------------------------------
  Minimizer      : DIIS                : direct inversion
                                         in the iterative subspace
                                         using   7 DIIS vectors
                                         safer DIIS on
  Preconditioner : FULL_SINGLE_INVERSE : inversion of 
                                         H + eS - 2*(Sc)(c^T*H*c+const)(Sc)^T
  Precond_solver : DEFAULT
  stepsize       :    0.08000000                  energy_gap     :    0.08000000
  eps_taylor     :   0.10000E-15                  max_taylor     :             4
  ----------------------------------- OT ---------------------------------------

  Step     Update method      Time    Convergence         Total energy    Change
  ------------------------------------------------------------------------------
     1 OT DIIS     0.80E-01    4.8     0.00107167      -902.7435364793 -9.03E+02
     2 OT DIIS     0.80E-01    6.0     0.00060624      -902.7473935292 -3.86E-03
     3 OT DIIS     0.80E-01    6.0     0.00044214      -902.7484850569 -1.09E-03
     4 OT DIIS     0.80E-01    6.0     0.00019971      -902.7491080092 -6.23E-04
     5 OT DIIS     0.80E-01    6.0     0.00009701      -902.7492204636 -1.12E-04
     6 OT DIIS     0.80E-01    6.0     0.00004357      -902.7492456764 -2.52E-05
     7 OT DIIS     0.80E-01    6.0     0.00002065      -902.7492516690 -5.99E-06
     8 OT DIIS     0.80E-01    6.0     0.00001100      -902.7492531548 -1.49E-06
     9 OT DIIS     0.80E-01    6.0     0.00000571      -902.7492534894 -3.35E-07

  *** SCF run converged in     9 steps ***


  Electronic density on regular grids:       -407.9999978574        0.0000021426
  Core density on regular grids:              407.9999999749       -0.0000000251
  Total charge density on r-space grids:        0.0000021176
  Total charge density g-space grids:           0.0000021176

  Overlap energy of the core charge distribution:               0.00000006620199
  Self energy of the core charge distribution:              -2342.23014539452743
  Core Hamiltonian energy:                                    682.94582375347795
  Hartree energy:                                             971.47705303834482
  Exchange-correlation energy:                               -214.94198495286977

  Total energy:                                              -902.74925348937234

 ENERGY| Total FORCE_EVAL ( QS ) energy [hartree]           -902.749253591074421

 OPT| **************************************************************************
 OPT| Step number                                                             16
 OPT| Optimization method                                                  LBFGS
 OPT| Total energy [hartree]                                     -902.7492535911
 OPT| Effective energy change [hartree]                            -0.0056738113
 OPT| Decrease in energy                                                     YES
 OPT| Used time [s]                                                       61.865
 OPT|
 OPT| Maximum step size                                             0.1522610365
 OPT| Convergence limit for maximum step size                       0.0030000000
 OPT| Maximum step size is converged                                          NO
 OPT|
 OPT| RMS step size                                                 0.0417083624
 OPT| Convergence limit for RMS step size                           0.0015000000
 OPT| RMS step size is converged                                              NO
 OPT|
 OPT| Maximum gradient                                              0.0188660992
 OPT| Convergence limit for maximum gradient                        0.0010000000
 OPT| Maximum gradient is converged                                           NO
 OPT|
 OPT| RMS gradient                                                  0.0042914923
 OPT| Convergence limit for RMS gradient                            0.0003000000
 OPT| RMS gradient is converged                                               NO
 OPT| **************************************************************************
 OPT| Estimated peak process memory after this step [MiB]                   1789

 --------------------------
 OPTIMIZATION STEP:     17
 --------------------------

 Number of electrons:                                                        408
 Number of occupied orbitals:                                                204
 Number of molecular orbitals:                                               204

 Number of orbital functions:                                                314
 Number of independent orbital functions:                                    314

 Extrapolation method: ASPC


 SCF WAVEFUNCTION OPTIMIZATION

  ----------------------------------- OT ---------------------------------------
  Minimizer      : DIIS                : direct inversion
                                         in the iterative subspace
                                         using   7 DIIS vectors
                                         safer DIIS on
  Preconditioner : FULL_SINGLE_INVERSE : inversion of 
                                         H + eS - 2*(Sc)(c^T*H*c+const)(Sc)^T
  Precond_solver : DEFAULT
  stepsize       :    0.08000000                  energy_gap     :    0.08000000
  eps_taylor     :   0.10000E-15                  max_taylor     :             4
  ----------------------------------- OT ---------------------------------------

  Step     Update method      Time    Convergence         Total energy    Change
  ------------------------------------------------------------------------------
     1 OT DIIS     0.80E-01    4.8     0.00209461      -902.7314897897 -9.03E+02
     2 OT DIIS     0.80E-01    6.0     0.00116359      -902.7474613272 -1.60E-02
     3 OT DIIS     0.80E-01    6.0     0.00072221      -902.7532071092 -5.75E-03
     4 OT DIIS     0.80E-01    6.0     0.00030215      -902.7553599166 -2.15E-03
     5 OT DIIS     0.80E-01    6.0     0.00013809      -902.7556477744 -2.88E-04
     6 OT DIIS     0.80E-01    6.0     0.00007167      -902.7557120443 -6.43E-05
     7 OT DIIS     0.80E-01    6.0     0.00003785      -902.7557293676 -1.73E-05
     8 OT DIIS     0.80E-01    6.0     0.00001613      -902.7557342719 -4.90E-06
     9 OT DIIS     0.80E-01    6.0     0.00000797      -902.7557351992 -9.27E-07

  *** SCF run converged in     9 steps ***


  Electronic density on regular grids:       -407.9999976200        0.0000023800
  Core density on regular grids:              407.9999999748       -0.0000000252
  Total charge density on r-space grids:        0.0000023548
  Total charge density g-space grids:           0.0000023548

  Overlap energy of the core charge distribution:               0.00000007334226
  Self energy of the core charge distribution:              -2342.23014539452743
  Core Hamiltonian energy:                                    682.88385945017671
  Hartree energy:                                             971.52236772610752
  Exchange-correlation energy:                               -214.93181705431260

  Total energy:                                              -902.75573519921363

 ENERGY| Total FORCE_EVAL ( QS ) energy [hartree]           -902.755735449070016

 OPT| **************************************************************************
 OPT| Step number                                                             17
 OPT| Optimization method                                                  LBFGS
 OPT| Total energy [hartree]                                     -902.7557354491
 OPT| Effective energy change [hartree]                            -0.0064818580
 OPT| Decrease in energy                                                     YES
 OPT| Used time [s]                                                       61.919
 OPT|
 OPT| Maximum step size                                             0.0565378762
 OPT| Convergence limit for maximum step size                       0.0030000000
 OPT| Maximum step size is converged                                          NO
 OPT|
 OPT| RMS step size                                                 0.0148455925
 OPT| Convergence limit for RMS step size                           0.0015000000
 OPT| RMS step size is converged                                              NO
 OPT|
 OPT| Maximum gradient                                              0.0183596104
 OPT| Convergence limit for maximum gradient                        0.0010000000
 OPT| Maximum gradient is converged                                           NO
 OPT|
 OPT| RMS gradient                                                  0.0041948035
 OPT| Convergence limit for RMS gradient                            0.0003000000
 OPT| RMS gradient is converged                                               NO
 OPT| **************************************************************************
 OPT| Estimated peak process memory after this step [MiB]                   1789

 --------------------------
 OPTIMIZATION STEP:     18
 --------------------------

 Number of electrons:                                                        408
 Number of occupied orbitals:                                                204
 Number of molecular orbitals:                                               204

 Number of orbital functions:                                                314
 Number of independent orbital functions:                                    314

 Extrapolation method: ASPC


 SCF WAVEFUNCTION OPTIMIZATION

  ----------------------------------- OT ---------------------------------------
  Minimizer      : DIIS                : direct inversion
                                         in the iterative subspace
                                         using   7 DIIS vectors
                                         safer DIIS on
  Preconditioner : FULL_SINGLE_INVERSE : inversion of 
                                         H + eS - 2*(Sc)(c^T*H*c+const)(Sc)^T
  Precond_solver : DEFAULT
  stepsize       :    0.08000000                  energy_gap     :    0.08000000
  eps_taylor     :   0.10000E-15                  max_taylor     :             4
  ----------------------------------- OT ---------------------------------------

  Step     Update method      Time    Convergence         Total energy    Change
  ------------------------------------------------------------------------------
     1 OT DIIS     0.80E-01    4.8     0.00185948      -902.7429782365 -9.03E+02
     2 OT DIIS     0.80E-01    6.0     0.00100944      -902.7549561687 -1.20E-02
     3 OT DIIS     0.80E-01    6.0     0.00068424      -902.7585317462 -3.58E-03
     4 OT DIIS     0.80E-01    6.0     0.00029668      -902.7601566740 -1.62E-03
     5 OT DIIS     0.80E-01    6.0     0.00014258      -902.7604122582 -2.56E-04
     6 OT DIIS     0.80E-01    6.0     0.00007086      -902.7604691387 -5.69E-05
     7 OT DIIS     0.80E-01    6.0     0.00003812      -902.7604843514 -1.52E-05
     8 OT DIIS     0.80E-01    6.0     0.00001672      -902.7604889509 -4.60E-06
     9 OT DIIS     0.80E-01    6.0     0.00000813      -902.7604898436 -8.93E-07

  *** SCF run converged in     9 steps ***


  Electronic density on regular grids:       -407.9999972257        0.0000027743
  Core density on regular grids:              407.9999999747       -0.0000000253
  Total charge density on r-space grids:        0.0000027490
  Total charge density g-space grids:           0.0000027490

  Overlap energy of the core charge distribution:               0.00000006505955
  Self energy of the core charge distribution:              -2342.23014539452743
  Core Hamiltonian energy:                                    682.80899491003208
  Hartree energy:                                             971.57109407784833
  Exchange-correlation energy:                               -214.91043350200874

  Total energy:                                              -902.76048984359636

 ENERGY| Total FORCE_EVAL ( QS ) energy [hartree]           -902.760490093255612

 OPT| **************************************************************************
 OPT| Step number                                                             18
 OPT| Optimization method                                                  LBFGS
 OPT| Total energy [hartree]                                     -902.7604900933
 OPT| Effective energy change [hartree]                            -0.0047546442
 OPT| Decrease in energy                                                     YES
 OPT| Used time [s]                                                       61.907
 OPT|
 OPT| Maximum step size                                             0.0381866856
 OPT| Convergence limit for maximum step size                       0.0030000000
 OPT| Maximum step size is converged                                          NO
 OPT|
 OPT| RMS step size                                                 0.0097778444
 OPT| Convergence limit for RMS step size                           0.0015000000
 OPT| RMS step size is converged                                              NO
 OPT|
 OPT| Maximum gradient                                              0.0074706198
 OPT| Convergence limit for maximum gradient                        0.0010000000
 OPT| Maximum gradient is converged                                           NO
 OPT|
 OPT| RMS gradient                                                  0.0026502120
 OPT| Convergence limit for RMS gradient                            0.0003000000
 OPT| RMS gradient is converged                                               NO
 OPT| **************************************************************************
 OPT| Estimated peak process memory after this step [MiB]                   1789

 --------------------------
 OPTIMIZATION STEP:     19
 --------------------------

 Number of electrons:                                                        408
 Number of occupied orbitals:                                                204
 Number of molecular orbitals:                                               204

 Number of orbital functions:                                                314
 Number of independent orbital functions:                                    314

 Extrapolation method: ASPC


 SCF WAVEFUNCTION OPTIMIZATION

  ----------------------------------- OT ---------------------------------------
  Minimizer      : DIIS                : direct inversion
                                         in the iterative subspace
                                         using   7 DIIS vectors
                                         safer DIIS on
  Preconditioner : FULL_SINGLE_INVERSE : inversion of 
                                         H + eS - 2*(Sc)(c^T*H*c+const)(Sc)^T
  Precond_solver : DEFAULT
  stepsize       :    0.08000000                  energy_gap     :    0.08000000
  eps_taylor     :   0.10000E-15                  max_taylor     :             4
  ----------------------------------- OT ---------------------------------------

  Step     Update method      Time    Convergence         Total energy    Change
  ------------------------------------------------------------------------------
     1 OT DIIS     0.80E-01    4.8     0.00077829      -902.7614800752 -9.03E+02
     2 OT DIIS     0.80E-01    6.0     0.00038972      -902.7635978715 -2.12E-03
     3 OT DIIS     0.80E-01    6.0     0.00023261      -902.7642109463 -6.13E-04
     4 OT DIIS     0.80E-01    6.0     0.00009807      -902.7644127568 -2.02E-04
     5 OT DIIS     0.80E-01    6.0     0.00004795      -902.7644506532 -3.79E-05
     6 OT DIIS     0.80E-01    6.0     0.00002224      -902.7644585584 -7.91E-06
     7 OT DIIS     0.80E-01    6.0     0.00001178      -902.7644602536 -1.70E-06
     8 OT DIIS     0.80E-01    6.0     0.00000540      -902.7644607505 -4.97E-07

  *** SCF run converged in     8 steps ***


  Electronic density on regular grids:       -407.9999968458        0.0000031542
  Core density on regular grids:              407.9999999746       -0.0000000254
  Total charge density on r-space grids:        0.0000031288
  Total charge density g-space grids:           0.0000031288

  Overlap energy of the core charge distribution:               0.00000006263525
  Self energy of the core charge distribution:              -2342.23014539452743
  Core Hamiltonian energy:                                    682.71575799531786
  Hartree energy:                                             971.63605122345689
  Exchange-correlation energy:                               -214.88612463741725

  Total energy:                                              -902.76446075053491

 ENERGY| Total FORCE_EVAL ( QS ) energy [hartree]           -902.764460858080838

 OPT| **************************************************************************
 OPT| Step number                                                             19
 OPT| Optimization method                                                  LBFGS
 OPT| Total energy [hartree]                                     -902.7644608581
 OPT| Effective energy change [hartree]                            -0.0039707648
 OPT| Decrease in energy                                                     YES
 OPT| Used time [s]                                                       55.835
 OPT|
 OPT| Maximum step size                                             0.0728322403
 OPT| Convergence limit for maximum step size                       0.0030000000
 OPT| Maximum step size is converged                                          NO
 OPT|
 OPT| RMS step size                                                 0.0138367996
 OPT| Convergence limit for RMS step size                           0.0015000000
 OPT| RMS step size is converged                                              NO
 OPT|
 OPT| Maximum gradient                                              0.0088868695
 OPT| Convergence limit for maximum gradient                        0.0010000000
 OPT| Maximum gradient is converged                                           NO
 OPT|
 OPT| RMS gradient                                                  0.0023681015
 OPT| Convergence limit for RMS gradient                            0.0003000000
 OPT| RMS gradient is converged                                               NO
 OPT| **************************************************************************
 OPT| Estimated peak process memory after this step [MiB]                   1789

 --------------------------
 OPTIMIZATION STEP:     20
 --------------------------

 Number of electrons:                                                        408
 Number of occupied orbitals:                                                204
 Number of molecular orbitals:                                               204

 Number of orbital functions:                                                314
 Number of independent orbital functions:                                    314

 Extrapolation method: ASPC


 SCF WAVEFUNCTION OPTIMIZATION

  ----------------------------------- OT ---------------------------------------
  Minimizer      : DIIS                : direct inversion
                                         in the iterative subspace
                                         using   7 DIIS vectors
                                         safer DIIS on
  Preconditioner : FULL_SINGLE_INVERSE : inversion of 
                                         H + eS - 2*(Sc)(c^T*H*c+const)(Sc)^T
  Precond_solver : DEFAULT
  stepsize       :    0.08000000                  energy_gap     :    0.08000000
  eps_taylor     :   0.10000E-15                  max_taylor     :             4
  ----------------------------------- OT ---------------------------------------

  Step     Update method      Time    Convergence         Total energy    Change
  ------------------------------------------------------------------------------
     1 OT DIIS     0.80E-01    4.8     0.00043579      -902.7676167385 -9.03E+02
     2 OT DIIS     0.80E-01    6.0     0.00023365      -902.7682071044 -5.90E-04
     3 OT DIIS     0.80E-01    6.0     0.00015538      -902.7683521165 -1.45E-04
     4 OT DIIS     0.80E-01    6.0     0.00006968      -902.7684320574 -7.99E-05
     5 OT DIIS     0.80E-01    6.0     0.00003421      -902.7684479683 -1.59E-05
     6 OT DIIS     0.80E-01    6.0     0.00001576      -902.7684517353 -3.77E-06
     7 OT DIIS     0.80E-01    6.0     0.00000727      -902.7684525333 -7.98E-07

  *** SCF run converged in     7 steps ***


  Electronic density on regular grids:       -407.9999967770        0.0000032230
  Core density on regular grids:              407.9999999745       -0.0000000255
  Total charge density on r-space grids:        0.0000031975
  Total charge density g-space grids:           0.0000031975

  Overlap energy of the core charge distribution:               0.00000006135557
  Self energy of the core charge distribution:              -2342.23014539452743
  Core Hamiltonian energy:                                    682.58466160609987
  Hartree energy:                                             971.72587582210747
  Exchange-correlation energy:                               -214.84884462833625

  Total energy:                                              -902.76845253330089

 ENERGY| Total FORCE_EVAL ( QS ) energy [hartree]           -902.768452718023809

 OPT| **************************************************************************
 OPT| Step number                                                             20
 OPT| Optimization method                                                  LBFGS
 OPT| Total energy [hartree]                                     -902.7684527180
 OPT| Effective energy change [hartree]                            -0.0039918599
 OPT| Decrease in energy                                                     YES
 OPT| Used time [s]                                                       49.798
 OPT|
 OPT| Maximum step size                                             0.1320594519
 OPT| Convergence limit for maximum step size                       0.0030000000
 OPT| Maximum step size is converged                                          NO
 OPT|
 OPT| RMS step size                                                 0.0226661379
 OPT| Convergence limit for RMS step size                           0.0015000000
 OPT| RMS step size is converged                                              NO
 OPT|
 OPT| Maximum gradient                                              0.0170963579
 OPT| Convergence limit for maximum gradient                        0.0010000000
 OPT| Maximum gradient is converged                                           NO
 OPT|
 OPT| RMS gradient                                                  0.0031027739
 OPT| Convergence limit for RMS gradient                            0.0003000000
 OPT| RMS gradient is converged                                               NO
 OPT| **************************************************************************
 OPT| Estimated peak process memory after this step [MiB]                   1789

 --------------------------
 OPTIMIZATION STEP:     21
 --------------------------

 Number of electrons:                                                        408
 Number of occupied orbitals:                                                204
 Number of molecular orbitals:                                               204

 Number of orbital functions:                                                314
 Number of independent orbital functions:                                    314

 Extrapolation method: ASPC


 SCF WAVEFUNCTION OPTIMIZATION

  ----------------------------------- OT ---------------------------------------
  Minimizer      : DIIS                : direct inversion
                                         in the iterative subspace
                                         using   7 DIIS vectors
                                         safer DIIS on
  Preconditioner : FULL_SINGLE_INVERSE : inversion of 
                                         H + eS - 2*(Sc)(c^T*H*c+const)(Sc)^T
  Precond_solver : DEFAULT
  stepsize       :    0.08000000                  energy_gap     :    0.08000000
  eps_taylor     :   0.10000E-15                  max_taylor     :             4
  ----------------------------------- OT ---------------------------------------

  Step     Update method      Time    Convergence         Total energy    Change
  ------------------------------------------------------------------------------
     1 OT DIIS     0.80E-01    4.8     0.00078676      -902.7688938152 -9.03E+02
     2 OT DIIS     0.80E-01    6.0     0.00042535      -902.7709362951 -2.04E-03
     3 OT DIIS     0.80E-01    6.0     0.00028992      -902.7714922008 -5.56E-04
     4 OT DIIS     0.80E-01    6.0     0.00012602      -902.7717860889 -2.94E-04
     5 OT DIIS     0.80E-01    6.0     0.00006222      -902.7718390006 -5.29E-05
     6 OT DIIS     0.80E-01    6.0     0.00002755      -902.7718510834 -1.21E-05
     7 OT DIIS     0.80E-01    6.0     0.00001331      -902.7718536268 -2.54E-06
     8 OT DIIS     0.80E-01    6.0     0.00000577      -902.7718542688 -6.42E-07

  *** SCF run converged in     8 steps ***


  Electronic density on regular grids:       -407.9999968332        0.0000031668
  Core density on regular grids:              407.9999999746       -0.0000000254
  Total charge density on r-space grids:        0.0000031415
  Total charge density g-space grids:           0.0000031415

  Overlap energy of the core charge distribution:               0.00000006145821
  Self energy of the core charge distribution:              -2342.23014539452743
  Core Hamiltonian energy:                                    682.54638139999713
  Hartree energy:                                             971.74982178369680
  Exchange-correlation energy:                               -214.83791211944643

  Total energy:                                              -902.77185426882158

 ENERGY| Total FORCE_EVAL ( QS ) energy [hartree]           -902.771854389573718

 OPT| **************************************************************************
 OPT| Step number                                                             21
 OPT| Optimization method                                                  LBFGS
 OPT| Total energy [hartree]                                     -902.7718543896
 OPT| Effective energy change [hartree]                            -0.0034016715
 OPT| Decrease in energy                                                     YES
 OPT| Used time [s]                                                       55.838
 OPT|
 OPT| Maximum step size                                             0.1034143722
 OPT| Convergence limit for maximum step size                       0.0030000000
 OPT| Maximum step size is converged                                          NO
 OPT|
 OPT| RMS step size                                                 0.0168977090
 OPT| Convergence limit for RMS step size                           0.0015000000
 OPT| RMS step size is converged                                              NO
 OPT|
 OPT| Maximum gradient                                              0.0151748130
 OPT| Convergence limit for maximum gradient                        0.0010000000
 OPT| Maximum gradient is converged                                           NO
 OPT|
 OPT| RMS gradient                                                  0.0032475276
 OPT| Convergence limit for RMS gradient                            0.0003000000
 OPT| RMS gradient is converged                                               NO
 OPT| **************************************************************************
 OPT| Estimated peak process memory after this step [MiB]                   1789

 --------------------------
 OPTIMIZATION STEP:     22
 --------------------------

 Number of electrons:                                                        408
 Number of occupied orbitals:                                                204
 Number of molecular orbitals:                                               204

 Number of orbital functions:                                                314
 Number of independent orbital functions:                                    314

 Extrapolation method: ASPC


 SCF WAVEFUNCTION OPTIMIZATION

  ----------------------------------- OT ---------------------------------------
  Minimizer      : DIIS                : direct inversion
                                         in the iterative subspace
                                         using   7 DIIS vectors
                                         safer DIIS on
  Preconditioner : FULL_SINGLE_INVERSE : inversion of 
                                         H + eS - 2*(Sc)(c^T*H*c+const)(Sc)^T
  Precond_solver : DEFAULT
  stepsize       :    0.08000000                  energy_gap     :    0.08000000
  eps_taylor     :   0.10000E-15                  max_taylor     :             4
  ----------------------------------- OT ---------------------------------------

  Step     Update method      Time    Convergence         Total energy    Change
  ------------------------------------------------------------------------------
     1 OT DIIS     0.80E-01    4.8     0.00070872      -902.7728044618 -9.03E+02
     2 OT DIIS     0.80E-01    6.0     0.00035529      -902.7744469513 -1.64E-03
     3 OT DIIS     0.80E-01    6.0     0.00023104      -902.7748505581 -4.04E-04
     4 OT DIIS     0.80E-01    6.0     0.00009306      -902.7750333437 -1.83E-04
     5 OT DIIS     0.80E-01    6.0     0.00004305      -902.7750687327 -3.54E-05
     6 OT DIIS     0.80E-01    6.0     0.00001901      -902.7750757545 -7.02E-06
     7 OT DIIS     0.80E-01    6.0     0.00000957      -902.7750771729 -1.42E-06

  *** SCF run converged in     7 steps ***


  Electronic density on regular grids:       -407.9999968369        0.0000031631
  Core density on regular grids:              407.9999999747       -0.0000000253
  Total charge density on r-space grids:        0.0000031378
  Total charge density g-space grids:           0.0000031378

  Overlap energy of the core charge distribution:               0.00000006393726
  Self energy of the core charge distribution:              -2342.23014539452743
  Core Hamiltonian energy:                                    682.57640764125279
  Hartree energy:                                             971.72536456545799
  Exchange-correlation energy:                               -214.84670404906771

  Total energy:                                              -902.77507717294679

 ENERGY| Total FORCE_EVAL ( QS ) energy [hartree]           -902.775077478982780

 OPT| **************************************************************************
 OPT| Step number                                                             22
 OPT| Optimization method                                                  LBFGS
 OPT| Total energy [hartree]                                     -902.7750774790
 OPT| Effective energy change [hartree]                            -0.0032230894
 OPT| Decrease in energy                                                     YES
 OPT| Used time [s]                                                       49.829
 OPT|
 OPT| Maximum step size                                             0.0666855568
 OPT| Convergence limit for maximum step size                       0.0030000000
 OPT| Maximum step size is converged                                          NO
 OPT|
 OPT| RMS step size                                                 0.0110774820
 OPT| Convergence limit for RMS step size                           0.0015000000
 OPT| RMS step size is converged                                              NO
 OPT|
 OPT| Maximum gradient                                              0.0094554656
 OPT| Convergence limit for maximum gradient                        0.0010000000
 OPT| Maximum gradient is converged                                           NO
 OPT|
 OPT| RMS gradient                                                  0.0023281301
 OPT| Convergence limit for RMS gradient                            0.0003000000
 OPT| RMS gradient is converged                                               NO
 OPT| **************************************************************************
 OPT| Estimated peak process memory after this step [MiB]                   1789

 --------------------------
 OPTIMIZATION STEP:     23
 --------------------------

 Number of electrons:                                                        408
 Number of occupied orbitals:                                                204
 Number of molecular orbitals:                                               204

 Number of orbital functions:                                                314
 Number of independent orbital functions:                                    314

 Extrapolation method: ASPC


 SCF WAVEFUNCTION OPTIMIZATION

  ----------------------------------- OT ---------------------------------------
  Minimizer      : DIIS                : direct inversion
                                         in the iterative subspace
                                         using   7 DIIS vectors
                                         safer DIIS on
  Preconditioner : FULL_SINGLE_INVERSE : inversion of 
                                         H + eS - 2*(Sc)(c^T*H*c+const)(Sc)^T
  Precond_solver : DEFAULT
  stepsize       :    0.08000000                  energy_gap     :    0.08000000
  eps_taylor     :   0.10000E-15                  max_taylor     :             4
  ----------------------------------- OT ---------------------------------------

  Step     Update method      Time    Convergence         Total energy    Change
  ------------------------------------------------------------------------------
     1 OT DIIS     0.80E-01    4.8     0.00055693      -902.7766697249 -9.03E+02
     2 OT DIIS     0.80E-01    6.0     0.00029867      -902.7777733213 -1.10E-03
     3 OT DIIS     0.80E-01    6.0     0.00019407      -902.7781318987 -3.59E-04
     4 OT DIIS     0.80E-01    6.0     0.00008040      -902.7782751697 -1.43E-04
     5 OT DIIS     0.80E-01    6.0     0.00003623      -902.7783022198 -2.71E-05
     6 OT DIIS     0.80E-01    6.0     0.00001747      -902.7783064622 -4.24E-06
     7 OT DIIS     0.80E-01    6.0     0.00000836      -902.7783074713 -1.01E-06

  *** SCF run converged in     7 steps ***


  Electronic density on regular grids:       -407.9999970903        0.0000029097
  Core density on regular grids:              407.9999999747       -0.0000000253
  Total charge density on r-space grids:        0.0000028844
  Total charge density g-space grids:           0.0000028844

  Overlap energy of the core charge distribution:               0.00000006661678
  Self energy of the core charge distribution:              -2342.23014539452743
  Core Hamiltonian energy:                                    682.62865763377977
  Hartree energy:                                             971.68016867349502
  Exchange-correlation energy:                               -214.85698845070115

  Total energy:                                              -902.77830747133692

 ENERGY| Total FORCE_EVAL ( QS ) energy [hartree]           -902.778307718007113

 OPT| **************************************************************************
 OPT| Step number                                                             23
 OPT| Optimization method                                                  LBFGS
 OPT| Total energy [hartree]                                     -902.7783077180
 OPT| Effective energy change [hartree]                            -0.0032302390
 OPT| Decrease in energy                                                     YES
 OPT| Used time [s]                                                       49.774
 OPT|
 OPT| Maximum step size                                             0.1194517503
 OPT| Convergence limit for maximum step size                       0.0030000000
 OPT| Maximum step size is converged                                          NO
 OPT|
 OPT| RMS step size                                                 0.0194855928
 OPT| Convergence limit for RMS step size                           0.0015000000
 OPT| RMS step size is converged                                              NO
 OPT|
 OPT| Maximum gradient                                              0.0099252812
 OPT| Convergence limit for maximum gradient                        0.0010000000
 OPT| Maximum gradient is converged                                           NO
 OPT|
 OPT| RMS gradient                                                  0.0023777841
 OPT| Convergence limit for RMS gradient                            0.0003000000
 OPT| RMS gradient is converged                                               NO
 OPT| **************************************************************************
 OPT| Estimated peak process memory after this step [MiB]                   1789

 --------------------------
 OPTIMIZATION STEP:     24
 --------------------------

 Number of electrons:                                                        408
 Number of occupied orbitals:                                                204
 Number of molecular orbitals:                                               204

 Number of orbital functions:                                                314
 Number of independent orbital functions:                                    314

 Extrapolation method: ASPC


 SCF WAVEFUNCTION OPTIMIZATION

  ----------------------------------- OT ---------------------------------------
  Minimizer      : DIIS                : direct inversion
                                         in the iterative subspace
                                         using   7 DIIS vectors
                                         safer DIIS on
  Preconditioner : FULL_SINGLE_INVERSE : inversion of 
                                         H + eS - 2*(Sc)(c^T*H*c+const)(Sc)^T
  Precond_solver : DEFAULT
  stepsize       :    0.08000000                  energy_gap     :    0.08000000
  eps_taylor     :   0.10000E-15                  max_taylor     :             4
  ----------------------------------- OT ---------------------------------------

  Step     Update method      Time    Convergence         Total energy    Change
  ------------------------------------------------------------------------------
     1 OT DIIS     0.80E-01    4.8     0.00077522      -902.7771989608 -9.03E+02
     2 OT DIIS     0.80E-01    6.0     0.00045333      -902.7794691219 -2.27E-03
     3 OT DIIS     0.80E-01    6.0     0.00030526      -902.7803799965 -9.11E-04
     4 OT DIIS     0.80E-01    6.0     0.00010982      -902.7807180994 -3.38E-04
     5 OT DIIS     0.80E-01    6.0     0.00005360      -902.7807612609 -4.32E-05
     6 OT DIIS     0.80E-01    6.0     0.00002306      -902.7807702624 -9.00E-06
     7 OT DIIS     0.80E-01    6.0     0.00001127      -902.7807722778 -2.02E-06
     8 OT DIIS     0.80E-01    6.0     0.00000513      -902.7807727781 -5.00E-07

  *** SCF run converged in     8 steps ***


  Electronic density on regular grids:       -407.9999971413        0.0000028587
  Core density on regular grids:              407.9999999746       -0.0000000254
  Total charge density on r-space grids:        0.0000028334
  Total charge density g-space grids:           0.0000028334

  Overlap energy of the core charge distribution:               0.00000006812622
  Self energy of the core charge distribution:              -2342.23014539452743
  Core Hamiltonian energy:                                    682.72636138671135
  Hartree energy:                                             971.60293129598119
  Exchange-correlation energy:                               -214.87992013434669

  Total energy:                                              -902.78077277805551

 ENERGY| Total FORCE_EVAL ( QS ) energy [hartree]           -902.780772875525827

 OPT| **************************************************************************
 OPT| Step number                                                             24
 OPT| Optimization method                                                  LBFGS
 OPT| Total energy [hartree]                                     -902.7807728755
 OPT| Effective energy change [hartree]                            -0.0024651575
 OPT| Decrease in energy                                                     YES
 OPT| Used time [s]                                                       55.822
 OPT|
 OPT| Maximum step size                                             0.0538872622
 OPT| Convergence limit for maximum step size                       0.0030000000
 OPT| Maximum step size is converged                                          NO
 OPT|
 OPT| RMS step size                                                 0.0112410119
 OPT| Convergence limit for RMS step size                           0.0015000000
 OPT| RMS step size is converged                                              NO
 OPT|
 OPT| Maximum gradient                                              0.0124862733
 OPT| Convergence limit for maximum gradient                        0.0010000000
 OPT| Maximum gradient is converged                                           NO
 OPT|
 OPT| RMS gradient                                                  0.0024706176
 OPT| Convergence limit for RMS gradient                            0.0003000000
 OPT| RMS gradient is converged                                               NO
 OPT| **************************************************************************
 OPT| Estimated peak process memory after this step [MiB]                   1789

 --------------------------
 OPTIMIZATION STEP:     25
 --------------------------

 Number of electrons:                                                        408
 Number of occupied orbitals:                                                204
 Number of molecular orbitals:                                               204

 Number of orbital functions:                                                314
 Number of independent orbital functions:                                    314

 Extrapolation method: ASPC


 SCF WAVEFUNCTION OPTIMIZATION

  ----------------------------------- OT ---------------------------------------
  Minimizer      : DIIS                : direct inversion
                                         in the iterative subspace
                                         using   7 DIIS vectors
                                         safer DIIS on
  Preconditioner : FULL_SINGLE_INVERSE : inversion of 
                                         H + eS - 2*(Sc)(c^T*H*c+const)(Sc)^T
  Precond_solver : DEFAULT
  stepsize       :    0.08000000                  energy_gap     :    0.08000000
  eps_taylor     :   0.10000E-15                  max_taylor     :             4
  ----------------------------------- OT ---------------------------------------

  Step     Update method      Time    Convergence         Total energy    Change
  ------------------------------------------------------------------------------
     1 OT DIIS     0.80E-01    4.8     0.00078170      -902.7798538591 -9.03E+02
     2 OT DIIS     0.80E-01    6.0     0.00045406      -902.7821896104 -2.34E-03
     3 OT DIIS     0.80E-01    6.0     0.00029922      -902.7831622790 -9.73E-04
     4 OT DIIS     0.80E-01    6.0     0.00010844      -902.7834650702 -3.03E-04
     5 OT DIIS     0.80E-01    6.0     0.00005161      -902.7835114102 -4.63E-05
     6 OT DIIS     0.80E-01    6.0     0.00002216      -902.7835204777 -9.07E-06
     7 OT DIIS     0.80E-01    6.0     0.00001079      -902.7835223590 -1.88E-06
     8 OT DIIS     0.80E-01    6.0     0.00000507      -902.7835228200 -4.61E-07

  *** SCF run converged in     8 steps ***


  Electronic density on regular grids:       -407.9999971073        0.0000028927
  Core density on regular grids:              407.9999999747       -0.0000000253
  Total charge density on r-space grids:        0.0000028673
  Total charge density g-space grids:           0.0000028673

  Overlap energy of the core charge distribution:               0.00000006498403
  Self energy of the core charge distribution:              -2342.23014539452743
  Core Hamiltonian energy:                                    682.76941649082858
  Hartree energy:                                             971.56242287980149
  Exchange-correlation energy:                               -214.88521686113384

  Total energy:                                              -902.78352282004744

 ENERGY| Total FORCE_EVAL ( QS ) energy [hartree]           -902.783522915126923

 OPT| **************************************************************************
 OPT| Step number                                                             25
 OPT| Optimization method                                                  LBFGS
 OPT| Total energy [hartree]                                     -902.7835229151
 OPT| Effective energy change [hartree]                            -0.0027500396
 OPT| Decrease in energy                                                     YES
 OPT| Used time [s]                                                       55.767
 OPT|
 OPT| Maximum step size                                             0.0982498039
 OPT| Convergence limit for maximum step size                       0.0030000000
 OPT| Maximum step size is converged                                          NO
 OPT|
 OPT| RMS step size                                                 0.0174616359
 OPT| Convergence limit for RMS step size                           0.0015000000
 OPT| RMS step size is converged                                              NO
 OPT|
 OPT| Maximum gradient                                              0.0110122365
 OPT| Convergence limit for maximum gradient                        0.0010000000
 OPT| Maximum gradient is converged                                           NO
 OPT|
 OPT| RMS gradient                                                  0.0023178364
 OPT| Convergence limit for RMS gradient                            0.0003000000
 OPT| RMS gradient is converged                                               NO
 OPT| **************************************************************************
 OPT| Estimated peak process memory after this step [MiB]                   1789

 --------------------------
 OPTIMIZATION STEP:     26
 --------------------------

 Number of electrons:                                                        408
 Number of occupied orbitals:                                                204
 Number of molecular orbitals:                                               204

 Number of orbital functions:                                                314
 Number of independent orbital functions:                                    314

 Extrapolation method: ASPC


 SCF WAVEFUNCTION OPTIMIZATION

  ----------------------------------- OT ---------------------------------------
  Minimizer      : DIIS                : direct inversion
                                         in the iterative subspace
                                         using   7 DIIS vectors
                                         safer DIIS on
  Preconditioner : FULL_SINGLE_INVERSE : inversion of 
                                         H + eS - 2*(Sc)(c^T*H*c+const)(Sc)^T
  Precond_solver : DEFAULT
  stepsize       :    0.08000000                  energy_gap     :    0.08000000
  eps_taylor     :   0.10000E-15                  max_taylor     :             4
  ----------------------------------- OT ---------------------------------------

  Step     Update method      Time    Convergence         Total energy    Change
  ------------------------------------------------------------------------------
     1 OT DIIS     0.80E-01    4.8     0.00054883      -902.7846861619 -9.03E+02
     2 OT DIIS     0.80E-01    6.0     0.00030645      -902.7857970353 -1.11E-03
     3 OT DIIS     0.80E-01    6.0     0.00020421      -902.7861992962 -4.02E-04
     4 OT DIIS     0.80E-01    6.0     0.00008096      -902.7863464300 -1.47E-04
     5 OT DIIS     0.80E-01    6.0     0.00003692      -902.7863726941 -2.63E-05
     6 OT DIIS     0.80E-01    6.0     0.00001561      -902.7863777391 -5.04E-06
     7 OT DIIS     0.80E-01    6.0     0.00000720      -902.7863787095 -9.70E-07

  *** SCF run converged in     7 steps ***


  Electronic density on regular grids:       -407.9999969876        0.0000030124
  Core density on regular grids:              407.9999999746       -0.0000000254
  Total charge density on r-space grids:        0.0000029870
  Total charge density g-space grids:           0.0000029870

  Overlap energy of the core charge distribution:               0.00000006734501
  Self energy of the core charge distribution:              -2342.23014539452743
  Core Hamiltonian energy:                                    682.79773208896415
  Hartree energy:                                             971.53826474146717
  Exchange-correlation energy:                               -214.89223021276450

  Total energy:                                              -902.78637870951582

 ENERGY| Total FORCE_EVAL ( QS ) energy [hartree]           -902.786378930823048

 OPT| **************************************************************************
 OPT| Step number                                                             26
 OPT| Optimization method                                                  LBFGS
 OPT| Total energy [hartree]                                     -902.7863789308
 OPT| Effective energy change [hartree]                            -0.0028560157
 OPT| Decrease in energy                                                     YES
 OPT| Used time [s]                                                       49.772
 OPT|
 OPT| Maximum step size                                             0.0889527357
 OPT| Convergence limit for maximum step size                       0.0030000000
 OPT| Maximum step size is converged                                          NO
 OPT|
 OPT| RMS step size                                                 0.0187032697
 OPT| Convergence limit for RMS step size                           0.0015000000
 OPT| RMS step size is converged                                              NO
 OPT|
 OPT| Maximum gradient                                              0.0072348956
 OPT| Convergence limit for maximum gradient                        0.0010000000
 OPT| Maximum gradient is converged                                           NO
 OPT|
 OPT| RMS gradient                                                  0.0021981671
 OPT| Convergence limit for RMS gradient                            0.0003000000
 OPT| RMS gradient is converged                                               NO
 OPT| **************************************************************************
 OPT| Estimated peak process memory after this step [MiB]                   1789

 --------------------------
 OPTIMIZATION STEP:     27
 --------------------------

 Number of electrons:                                                        408
 Number of occupied orbitals:                                                204
 Number of molecular orbitals:                                               204

 Number of orbital functions:                                                314
 Number of independent orbital functions:                                    314

 Extrapolation method: ASPC


 SCF WAVEFUNCTION OPTIMIZATION

  ----------------------------------- OT ---------------------------------------
  Minimizer      : DIIS                : direct inversion
                                         in the iterative subspace
                                         using   7 DIIS vectors
                                         safer DIIS on
  Preconditioner : FULL_SINGLE_INVERSE : inversion of 
                                         H + eS - 2*(Sc)(c^T*H*c+const)(Sc)^T
  Precond_solver : DEFAULT
  stepsize       :    0.08000000                  energy_gap     :    0.08000000
  eps_taylor     :   0.10000E-15                  max_taylor     :             4
  ----------------------------------- OT ---------------------------------------

  Step     Update method      Time    Convergence         Total energy    Change
  ------------------------------------------------------------------------------
     1 OT DIIS     0.80E-01    4.8     0.00044107      -902.7874442218 -9.03E+02
     2 OT DIIS     0.80E-01    6.0     0.00023676      -902.7881305350 -6.86E-04
     3 OT DIIS     0.80E-01    6.0     0.00015246      -902.7883478522 -2.17E-04
     4 OT DIIS     0.80E-01    6.0     0.00006189      -902.7884380926 -9.02E-05
     5 OT DIIS     0.80E-01    6.0     0.00003010      -902.7884533538 -1.53E-05
     6 OT DIIS     0.80E-01    6.0     0.00001398      -902.7884566423 -3.29E-06
     7 OT DIIS     0.80E-01    6.0     0.00000677      -902.7884573570 -7.15E-07

  *** SCF run converged in     7 steps ***


  Electronic density on regular grids:       -407.9999968733        0.0000031267
  Core density on regular grids:              407.9999999748       -0.0000000252
  Total charge density on r-space grids:        0.0000031015
  Total charge density g-space grids:           0.0000031015

  Overlap energy of the core charge distribution:               0.00000005788367
  Self energy of the core charge distribution:              -2342.23014539452743
  Core Hamiltonian energy:                                    682.73545127195314
  Hartree energy:                                             971.57439845343708
  Exchange-correlation energy:                               -214.86816174570706

  Total energy:                                              -902.78845735696052

 ENERGY| Total FORCE_EVAL ( QS ) energy [hartree]           -902.788457539071260

 OPT| **************************************************************************
 OPT| Step number                                                             27
 OPT| Optimization method                                                  LBFGS
 OPT| Total energy [hartree]                                     -902.7884575391
 OPT| Effective energy change [hartree]                            -0.0020786082
 OPT| Decrease in energy                                                     YES
 OPT| Used time [s]                                                       49.780
 OPT|
 OPT| Maximum step size                                             0.0771651418
 OPT| Convergence limit for maximum step size                       0.0030000000
 OPT| Maximum step size is converged                                          NO
 OPT|
 OPT| RMS step size                                                 0.0172027942
 OPT| Convergence limit for RMS step size                           0.0015000000
 OPT| RMS step size is converged                                              NO
 OPT|
 OPT| Maximum gradient                                              0.0095843010
 OPT| Convergence limit for maximum gradient                        0.0010000000
 OPT| Maximum gradient is converged                                           NO
 OPT|
 OPT| RMS gradient                                                  0.0028611976
 OPT| Convergence limit for RMS gradient                            0.0003000000
 OPT| RMS gradient is converged                                               NO
 OPT| **************************************************************************
 OPT| Estimated peak process memory after this step [MiB]                   1789

 --------------------------
 OPTIMIZATION STEP:     28
 --------------------------

 Number of electrons:                                                        408
 Number of occupied orbitals:                                                204
 Number of molecular orbitals:                                               204

 Number of orbital functions:                                                314
 Number of independent orbital functions:                                    314

 Extrapolation method: ASPC


 SCF WAVEFUNCTION OPTIMIZATION

  ----------------------------------- OT ---------------------------------------
  Minimizer      : DIIS                : direct inversion
                                         in the iterative subspace
                                         using   7 DIIS vectors
                                         safer DIIS on
  Preconditioner : FULL_SINGLE_INVERSE : inversion of 
                                         H + eS - 2*(Sc)(c^T*H*c+const)(Sc)^T
  Precond_solver : DEFAULT
  stepsize       :    0.08000000                  energy_gap     :    0.08000000
  eps_taylor     :   0.10000E-15                  max_taylor     :             4
  ----------------------------------- OT ---------------------------------------

  Step     Update method      Time    Convergence         Total energy    Change
  ------------------------------------------------------------------------------
     1 OT DIIS     0.80E-01    4.8     0.00069361      -902.7879168954 -9.03E+02
     2 OT DIIS     0.80E-01    6.0     0.00038284      -902.7896934842 -1.78E-03
     3 OT DIIS     0.80E-01    6.0     0.00022704      -902.7903621453 -6.69E-04
     4 OT DIIS     0.80E-01    6.0     0.00009033      -902.7905840469 -2.22E-04
     5 OT DIIS     0.80E-01    6.0     0.00004097      -902.7906183148 -3.43E-05
     6 OT DIIS     0.80E-01    6.0     0.00001888      -902.7906246658 -6.35E-06
     7 OT DIIS     0.80E-01    6.0     0.00000946      -902.7906259262 -1.26E-06

  *** SCF run converged in     7 steps ***


  Electronic density on regular grids:       -407.9999968773        0.0000031227
  Core density on regular grids:              407.9999999748       -0.0000000252
  Total charge density on r-space grids:        0.0000030974
  Total charge density g-space grids:           0.0000030974

  Overlap energy of the core charge distribution:               0.00000006587899
  Self energy of the core charge distribution:              -2342.23014539452743
  Core Hamiltonian energy:                                    682.72697353614171
  Hartree energy:                                             971.58719649433965
  Exchange-correlation energy:                               -214.87465062802161

  Total energy:                                              -902.79062592618891

 ENERGY| Total FORCE_EVAL ( QS ) energy [hartree]           -902.790626257703252

 OPT| **************************************************************************
 OPT| Step number                                                             28
 OPT| Optimization method                                                  LBFGS
 OPT| Total energy [hartree]                                     -902.7906262577
 OPT| Effective energy change [hartree]                            -0.0021687186
 OPT| Decrease in energy                                                     YES
 OPT| Used time [s]                                                       49.775
 OPT|
 OPT| Maximum step size                                             0.0293044517
 OPT| Convergence limit for maximum step size                       0.0030000000
 OPT| Maximum step size is converged                                          NO
 OPT|
 OPT| RMS step size                                                 0.0069356266
 OPT| Convergence limit for RMS step size                           0.0015000000
 OPT| RMS step size is converged                                              NO
 OPT|
 OPT| Maximum gradient                                              0.0076139270
 OPT| Convergence limit for maximum gradient                        0.0010000000
 OPT| Maximum gradient is converged                                           NO
 OPT|
 OPT| RMS gradient                                                  0.0016962902
 OPT| Convergence limit for RMS gradient                            0.0003000000
 OPT| RMS gradient is converged                                               NO
 OPT| **************************************************************************
 OPT| Estimated peak process memory after this step [MiB]                   1797

 --------------------------
 OPTIMIZATION STEP:     29
 --------------------------

 Number of electrons:                                                        408
 Number of occupied orbitals:                                                204
 Number of molecular orbitals:                                               204

 Number of orbital functions:                                                314
 Number of independent orbital functions:                                    314

 Extrapolation method: ASPC


 SCF WAVEFUNCTION OPTIMIZATION

  ----------------------------------- OT ---------------------------------------
  Minimizer      : DIIS                : direct inversion
                                         in the iterative subspace
                                         using   7 DIIS vectors
                                         safer DIIS on
  Preconditioner : FULL_SINGLE_INVERSE : inversion of 
                                         H + eS - 2*(Sc)(c^T*H*c+const)(Sc)^T
  Precond_solver : DEFAULT
  stepsize       :    0.08000000                  energy_gap     :    0.08000000
  eps_taylor     :   0.10000E-15                  max_taylor     :             4
  ----------------------------------- OT ---------------------------------------

  Step     Update method      Time    Convergence         Total energy    Change
  ------------------------------------------------------------------------------
     1 OT DIIS     0.80E-01    4.8     0.00070926      -902.7891973908 -9.03E+02
     2 OT DIIS     0.80E-01    6.0     0.00039831      -902.7910656081 -1.87E-03
     3 OT DIIS     0.80E-01    6.0     0.00024269      -902.7917886160 -7.23E-04
     4 OT DIIS     0.80E-01    6.0     0.00009655      -902.7920391940 -2.51E-04
     5 OT DIIS     0.80E-01    6.0     0.00004302      -902.7920771452 -3.80E-05
     6 OT DIIS     0.80E-01    6.0     0.00002109      -902.7920836770 -6.53E-06
     7 OT DIIS     0.80E-01    6.0     0.00000992      -902.7920851547 -1.48E-06

  *** SCF run converged in     7 steps ***


  Electronic density on regular grids:       -407.9999967242        0.0000032758
  Core density on regular grids:              407.9999999748       -0.0000000252
  Total charge density on r-space grids:        0.0000032506
  Total charge density g-space grids:           0.0000032506

  Overlap energy of the core charge distribution:               0.00000006630184
  Self energy of the core charge distribution:              -2342.23014539452743
  Core Hamiltonian energy:                                    682.74123968272636
  Hartree energy:                                             971.57581004577253
  Exchange-correlation energy:                               -214.87898955495058

  Total energy:                                              -902.79208515467758

 ENERGY| Total FORCE_EVAL ( QS ) energy [hartree]           -902.792085545608984

 OPT| **************************************************************************
 OPT| Step number                                                             29
 OPT| Optimization method                                                  LBFGS
 OPT| Total energy [hartree]                                     -902.7920855456
 OPT| Effective energy change [hartree]                            -0.0014592879
 OPT| Decrease in energy                                                     YES
 OPT| Used time [s]                                                       49.766
 OPT|
 OPT| Maximum step size                                             0.0232588485
 OPT| Convergence limit for maximum step size                       0.0030000000
 OPT| Maximum step size is converged                                          NO
 OPT|
 OPT| RMS step size                                                 0.0055221375
 OPT| Convergence limit for RMS step size                           0.0015000000
 OPT| RMS step size is converged                                              NO
 OPT|
 OPT| Maximum gradient                                              0.0071341385
 OPT| Convergence limit for maximum gradient                        0.0010000000
 OPT| Maximum gradient is converged                                           NO
 OPT|
 OPT| RMS gradient                                                  0.0015858376
 OPT| Convergence limit for RMS gradient                            0.0003000000
 OPT| RMS gradient is converged                                               NO
 OPT| **************************************************************************
 OPT| Estimated peak process memory after this step [MiB]                   1797

 --------------------------
 OPTIMIZATION STEP:     30
 --------------------------

 Number of electrons:                                                        408
 Number of occupied orbitals:                                                204
 Number of molecular orbitals:                                               204

 Number of orbital functions:                                                314
 Number of independent orbital functions:                                    314

 Extrapolation method: ASPC


 SCF WAVEFUNCTION OPTIMIZATION

  ----------------------------------- OT ---------------------------------------
  Minimizer      : DIIS                : direct inversion
                                         in the iterative subspace
                                         using   7 DIIS vectors
                                         safer DIIS on
  Preconditioner : FULL_SINGLE_INVERSE : inversion of 
                                         H + eS - 2*(Sc)(c^T*H*c+const)(Sc)^T
  Precond_solver : DEFAULT
  stepsize       :    0.08000000                  energy_gap     :    0.08000000
  eps_taylor     :   0.10000E-15                  max_taylor     :             4
  ----------------------------------- OT ---------------------------------------

  Step     Update method      Time    Convergence         Total energy    Change
  ------------------------------------------------------------------------------
     1 OT DIIS     0.80E-01    4.8     0.00049445      -902.7930011901 -9.03E+02
     2 OT DIIS     0.80E-01    6.0     0.00026796      -902.7938741066 -8.73E-04
     3 OT DIIS     0.80E-01    6.0     0.00016801      -902.7941671682 -2.93E-04
     4 OT DIIS     0.80E-01    6.0     0.00006913      -902.7942831657 -1.16E-04
     5 OT DIIS     0.80E-01    6.0     0.00003055      -902.7943008187 -1.77E-05
     6 OT DIIS     0.80E-01    6.0     0.00001496      -902.7943039084 -3.09E-06
     7 OT DIIS     0.80E-01    6.0     0.00000699      -902.7943046192 -7.11E-07

  *** SCF run converged in     7 steps ***


  Electronic density on regular grids:       -407.9999963872        0.0000036128
  Core density on regular grids:              407.9999999748       -0.0000000252
  Total charge density on r-space grids:        0.0000035876
  Total charge density g-space grids:           0.0000035876

  Overlap energy of the core charge distribution:               0.00000006836895
  Self energy of the core charge distribution:              -2342.23014539452743
  Core Hamiltonian energy:                                    682.80820456422828
  Hartree energy:                                             971.52524644327900
  Exchange-correlation energy:                               -214.89761030057360

  Total energy:                                              -902.79430461922493

 ENERGY| Total FORCE_EVAL ( QS ) energy [hartree]           -902.794304803701152

 OPT| **************************************************************************
 OPT| Step number                                                             30
 OPT| Optimization method                                                  LBFGS
 OPT| Total energy [hartree]                                     -902.7943048037
 OPT| Effective energy change [hartree]                            -0.0022192581
 OPT| Decrease in energy                                                     YES
 OPT| Used time [s]                                                       49.774
 OPT|
 OPT| Maximum step size                                             0.0475995574
 OPT| Convergence limit for maximum step size                       0.0030000000
 OPT| Maximum step size is converged                                          NO
 OPT|
 OPT| RMS step size                                                 0.0121029271
 OPT| Convergence limit for RMS step size                           0.0015000000
 OPT| RMS step size is converged                                              NO
 OPT|
 OPT| Maximum gradient                                              0.0069413335
 OPT| Convergence limit for maximum gradient                        0.0010000000
 OPT| Maximum gradient is converged                                           NO
 OPT|
 OPT| RMS gradient                                                  0.0018812726
 OPT| Convergence limit for RMS gradient                            0.0003000000
 OPT| RMS gradient is converged                                               NO
 OPT| **************************************************************************
 OPT| Estimated peak process memory after this step [MiB]                   1797

 --------------------------
 OPTIMIZATION STEP:     31
 --------------------------

 Number of electrons:                                                        408
 Number of occupied orbitals:                                                204
 Number of molecular orbitals:                                               204

 Number of orbital functions:                                                314
 Number of independent orbital functions:                                    314

 Extrapolation method: ASPC


 SCF WAVEFUNCTION OPTIMIZATION

  ----------------------------------- OT ---------------------------------------
  Minimizer      : DIIS                : direct inversion
                                         in the iterative subspace
                                         using   7 DIIS vectors
                                         safer DIIS on
  Preconditioner : FULL_SINGLE_INVERSE : inversion of 
                                         H + eS - 2*(Sc)(c^T*H*c+const)(Sc)^T
  Precond_solver : DEFAULT
  stepsize       :    0.08000000                  energy_gap     :    0.08000000
  eps_taylor     :   0.10000E-15                  max_taylor     :             4
  ----------------------------------- OT ---------------------------------------

  Step     Update method      Time    Convergence         Total energy    Change
  ------------------------------------------------------------------------------
     1 OT DIIS     0.80E-01    4.8     0.00066455      -902.7923516654 -9.03E+02
     2 OT DIIS     0.80E-01    6.0     0.00037671      -902.7939925279 -1.64E-03
     3 OT DIIS     0.80E-01    6.0     0.00022808      -902.7946372439 -6.45E-04
     4 OT DIIS     0.80E-01    6.0     0.00008826      -902.7948700146 -2.33E-04
     5 OT DIIS     0.80E-01    6.0     0.00003981      -902.7948999042 -2.99E-05
     6 OT DIIS     0.80E-01    6.0     0.00001829      -902.7949052140 -5.31E-06
     7 OT DIIS     0.80E-01    6.0     0.00000903      -902.7949064227 -1.21E-06

  *** SCF run converged in     7 steps ***


  Electronic density on regular grids:       -407.9999967200        0.0000032800
  Core density on regular grids:              407.9999999747       -0.0000000253
  Total charge density on r-space grids:        0.0000032548
  Total charge density g-space grids:           0.0000032548

  Overlap energy of the core charge distribution:               0.00000006681465
  Self energy of the core charge distribution:              -2342.23014539452743
  Core Hamiltonian energy:                                    682.89887005732828
  Hartree energy:                                             971.45175504617532
  Exchange-correlation energy:                               -214.91538619851286

  Total energy:                                              -902.79490642272208

 ENERGY| Total FORCE_EVAL ( QS ) energy [hartree]           -902.794906745263802

 OPT| **************************************************************************
 OPT| Step number                                                             31
 OPT| Optimization method                                                  LBFGS
 OPT| Total energy [hartree]                                     -902.7949067453
 OPT| Effective energy change [hartree]                            -0.0006019416
 OPT| Decrease in energy                                                     YES
 OPT| Used time [s]                                                       49.784
 OPT|
 OPT| Maximum step size                                             0.1233967002
 OPT| Convergence limit for maximum step size                       0.0030000000
 OPT| Maximum step size is converged                                          NO
 OPT|
 OPT| RMS step size                                                 0.0239459228
 OPT| Convergence limit for RMS step size                           0.0015000000
 OPT| RMS step size is converged                                              NO
 OPT|
 OPT| Maximum gradient                                              0.0181312470
 OPT| Convergence limit for maximum gradient                        0.0010000000
 OPT| Maximum gradient is converged                                           NO
 OPT|
 OPT| RMS gradient                                                  0.0034408014
 OPT| Convergence limit for RMS gradient                            0.0003000000
 OPT| RMS gradient is converged                                               NO
 OPT| **************************************************************************
 OPT| Estimated peak process memory after this step [MiB]                   1797

 --------------------------
 OPTIMIZATION STEP:     32
 --------------------------

 Number of electrons:                                                        408
 Number of occupied orbitals:                                                204
 Number of molecular orbitals:                                               204

 Number of orbital functions:                                                314
 Number of independent orbital functions:                                    314

 Extrapolation method: ASPC


 SCF WAVEFUNCTION OPTIMIZATION

  ----------------------------------- OT ---------------------------------------
  Minimizer      : DIIS                : direct inversion
                                         in the iterative subspace
                                         using   7 DIIS vectors
                                         safer DIIS on
  Preconditioner : FULL_SINGLE_INVERSE : inversion of 
                                         H + eS - 2*(Sc)(c^T*H*c+const)(Sc)^T
  Precond_solver : DEFAULT
  stepsize       :    0.08000000                  energy_gap     :    0.08000000
  eps_taylor     :   0.10000E-15                  max_taylor     :             4
  ----------------------------------- OT ---------------------------------------

  Step     Update method      Time    Convergence         Total energy    Change
  ------------------------------------------------------------------------------
     1 OT DIIS     0.80E-01    4.8     0.00160920      -902.7813661003 -9.03E+02
     2 OT DIIS     0.80E-01    6.0     0.00094593      -902.7915173933 -1.02E-02
     3 OT DIIS     0.80E-01    6.0     0.00047713      -902.7964932265 -4.98E-03
     4 OT DIIS     0.80E-01    6.0     0.00019901      -902.7974581223 -9.65E-04
     5 OT DIIS     0.80E-01    6.0     0.00008459      -902.7975799058 -1.22E-04
     6 OT DIIS     0.80E-01    6.0     0.00004026      -902.7976046409 -2.47E-05
     7 OT DIIS     0.80E-01    6.0     0.00002029      -902.7976105952 -5.95E-06
     8 OT DIIS     0.80E-01    6.0     0.00000911      -902.7976122805 -1.69E-06

  *** SCF run converged in     8 steps ***


  Electronic density on regular grids:       -407.9999963021        0.0000036979
  Core density on regular grids:              407.9999999748       -0.0000000252
  Total charge density on r-space grids:        0.0000036727
  Total charge density g-space grids:           0.0000036727

  Overlap energy of the core charge distribution:               0.00000006560876
  Self energy of the core charge distribution:              -2342.23014539452743
  Core Hamiltonian energy:                                    682.87902632711871
  Hartree energy:                                             971.46630137808756
  Exchange-correlation energy:                               -214.91279465674413

  Total energy:                                              -902.79761228045663

 ENERGY| Total FORCE_EVAL ( QS ) energy [hartree]           -902.797612591896836

 OPT| **************************************************************************
 OPT| Step number                                                             32
 OPT| Optimization method                                                  LBFGS
 OPT| Total energy [hartree]                                     -902.7976125919
 OPT| Effective energy change [hartree]                            -0.0027058466
 OPT| Decrease in energy                                                     YES
 OPT| Used time [s]                                                       55.826
 OPT|
 OPT| Maximum step size                                             0.0264618525
 OPT| Convergence limit for maximum step size                       0.0030000000
 OPT| Maximum step size is converged                                          NO
 OPT|
 OPT| RMS step size                                                 0.0064040117
 OPT| Convergence limit for RMS step size                           0.0015000000
 OPT| RMS step size is converged                                              NO
 OPT|
 OPT| Maximum gradient                                              0.0067768758
 OPT| Convergence limit for maximum gradient                        0.0010000000
 OPT| Maximum gradient is converged                                           NO
 OPT|
 OPT| RMS gradient                                                  0.0016427511
 OPT| Convergence limit for RMS gradient                            0.0003000000
 OPT| RMS gradient is converged                                               NO
 OPT| **************************************************************************
 OPT| Estimated peak process memory after this step [MiB]                   1798

 --------------------------
 OPTIMIZATION STEP:     33
 --------------------------

 Number of electrons:                                                        408
 Number of occupied orbitals:                                                204
 Number of molecular orbitals:                                               204

 Number of orbital functions:                                                314
 Number of independent orbital functions:                                    314

 Extrapolation method: ASPC


 SCF WAVEFUNCTION OPTIMIZATION

  ----------------------------------- OT ---------------------------------------
  Minimizer      : DIIS                : direct inversion
                                         in the iterative subspace
                                         using   7 DIIS vectors
                                         safer DIIS on
  Preconditioner : FULL_SINGLE_INVERSE : inversion of 
                                         H + eS - 2*(Sc)(c^T*H*c+const)(Sc)^T
  Precond_solver : DEFAULT
  stepsize       :    0.08000000                  energy_gap     :    0.08000000
  eps_taylor     :   0.10000E-15                  max_taylor     :             4
  ----------------------------------- OT ---------------------------------------

  Step     Update method      Time    Convergence         Total energy    Change
  ------------------------------------------------------------------------------
     1 OT DIIS     0.80E-01    4.8     0.00154957      -902.7835204588 -9.03E+02
     2 OT DIIS     0.80E-01    6.0     0.00092576      -902.7930753064 -9.55E-03
     3 OT DIIS     0.80E-01    6.0     0.00044785      -902.7980630558 -4.99E-03
     4 OT DIIS     0.80E-01    6.0     0.00018157      -902.7988289976 -7.66E-04
     5 OT DIIS     0.80E-01    6.0     0.00007628      -902.7989366517 -1.08E-04
     6 OT DIIS     0.80E-01    6.0     0.00003796      -902.7989566391 -2.00E-05
     7 OT DIIS     0.80E-01    6.0     0.00001898      -902.7989621313 -5.49E-06
     8 OT DIIS     0.80E-01    6.0     0.00000814      -902.7989635174 -1.39E-06

  *** SCF run converged in     8 steps ***


  Electronic density on regular grids:       -407.9999961010        0.0000038990
  Core density on regular grids:              407.9999999748       -0.0000000252
  Total charge density on r-space grids:        0.0000038738
  Total charge density g-space grids:           0.0000038738

  Overlap energy of the core charge distribution:               0.00000006582029
  Self energy of the core charge distribution:              -2342.23014539452743
  Core Hamiltonian energy:                                    682.85769189060272
  Hartree energy:                                             971.48159286027351
  Exchange-correlation energy:                               -214.90810293953521

  Total energy:                                              -902.79896351736613

 ENERGY| Total FORCE_EVAL ( QS ) energy [hartree]           -902.798963796703447

 OPT| **************************************************************************
 OPT| Step number                                                             33
 OPT| Optimization method                                                  LBFGS
 OPT| Total energy [hartree]                                     -902.7989637967
 OPT| Effective energy change [hartree]                            -0.0013512048
 OPT| Decrease in energy                                                     YES
 OPT| Used time [s]                                                       55.818
 OPT|
 OPT| Maximum step size                                             0.0181642088
 OPT| Convergence limit for maximum step size                       0.0030000000
 OPT| Maximum step size is converged                                          NO
 OPT|
 OPT| RMS step size                                                 0.0050929515
 OPT| Convergence limit for RMS step size                           0.0015000000
 OPT| RMS step size is converged                                              NO
 OPT|
 OPT| Maximum gradient                                              0.0063833107
 OPT| Convergence limit for maximum gradient                        0.0010000000
 OPT| Maximum gradient is converged                                           NO
 OPT|
 OPT| RMS gradient                                                  0.0013356033
 OPT| Convergence limit for RMS gradient                            0.0003000000
 OPT| RMS gradient is converged                                               NO
 OPT| **************************************************************************
 OPT| Estimated peak process memory after this step [MiB]                   1798

 --------------------------
 OPTIMIZATION STEP:     34
 --------------------------

 Number of electrons:                                                        408
 Number of occupied orbitals:                                                204
 Number of molecular orbitals:                                               204

 Number of orbital functions:                                                314
 Number of independent orbital functions:                                    314

 Extrapolation method: ASPC


 SCF WAVEFUNCTION OPTIMIZATION

  ----------------------------------- OT ---------------------------------------
  Minimizer      : DIIS                : direct inversion
                                         in the iterative subspace
                                         using   7 DIIS vectors
                                         safer DIIS on
  Preconditioner : FULL_SINGLE_INVERSE : inversion of 
                                         H + eS - 2*(Sc)(c^T*H*c+const)(Sc)^T
  Precond_solver : DEFAULT
  stepsize       :    0.08000000                  energy_gap     :    0.08000000
  eps_taylor     :   0.10000E-15                  max_taylor     :             4
  ----------------------------------- OT ---------------------------------------

  Step     Update method      Time    Convergence         Total energy    Change
  ------------------------------------------------------------------------------
     1 OT DIIS     0.80E-01    4.8     0.00053592      -902.7984026933 -9.03E+02
     2 OT DIIS     0.80E-01    6.0     0.00030421      -902.7994991549 -1.10E-03
     3 OT DIIS     0.80E-01    6.0     0.00016611      -902.7999733137 -4.74E-04
     4 OT DIIS     0.80E-01    6.0     0.00007271      -902.8000903768 -1.17E-04
     5 OT DIIS     0.80E-01    6.0     0.00002803      -902.8001079678 -1.76E-05
     6 OT DIIS     0.80E-01    6.0     0.00001304      -902.8001111016 -3.13E-06
     7 OT DIIS     0.80E-01    6.0     0.00000647      -902.8001116792 -5.78E-07

  *** SCF run converged in     7 steps ***


  Electronic density on regular grids:       -407.9999958004        0.0000041996
  Core density on regular grids:              407.9999999747       -0.0000000253
  Total charge density on r-space grids:        0.0000041743
  Total charge density g-space grids:           0.0000041743

  Overlap energy of the core charge distribution:               0.00000006403275
  Self energy of the core charge distribution:              -2342.23014539452743
  Core Hamiltonian energy:                                    682.82184060931775
  Hartree energy:                                             971.50552021243857
  Exchange-correlation energy:                               -214.89732717049461

  Total energy:                                              -902.80011167923260

 ENERGY| Total FORCE_EVAL ( QS ) energy [hartree]           -902.800111846496861

 OPT| **************************************************************************
 OPT| Step number                                                             34
 OPT| Optimization method                                                  LBFGS
 OPT| Total energy [hartree]                                     -902.8001118465
 OPT| Effective energy change [hartree]                            -0.0011480498
 OPT| Decrease in energy                                                     YES
 OPT| Used time [s]                                                       49.758
 OPT|
 OPT| Maximum step size                                             0.0571928853
 OPT| Convergence limit for maximum step size                       0.0030000000
 OPT| Maximum step size is converged                                          NO
 OPT|
 OPT| RMS step size                                                 0.0099820366
 OPT| Convergence limit for RMS step size                           0.0015000000
 OPT| RMS step size is converged                                              NO
 OPT|
 OPT| Maximum gradient                                              0.0066598413
 OPT| Convergence limit for maximum gradient                        0.0010000000
 OPT| Maximum gradient is converged                                           NO
 OPT|
 OPT| RMS gradient                                                  0.0016269123
 OPT| Convergence limit for RMS gradient                            0.0003000000
 OPT| RMS gradient is converged                                               NO
 OPT| **************************************************************************
 OPT| Estimated peak process memory after this step [MiB]                   1798

 --------------------------
 OPTIMIZATION STEP:     35
 --------------------------

 Number of electrons:                                                        408
 Number of occupied orbitals:                                                204
 Number of molecular orbitals:                                               204

 Number of orbital functions:                                                314
 Number of independent orbital functions:                                    314

 Extrapolation method: ASPC


 SCF WAVEFUNCTION OPTIMIZATION

  ----------------------------------- OT ---------------------------------------
  Minimizer      : DIIS                : direct inversion
                                         in the iterative subspace
                                         using   7 DIIS vectors
                                         safer DIIS on
  Preconditioner : FULL_SINGLE_INVERSE : inversion of 
                                         H + eS - 2*(Sc)(c^T*H*c+const)(Sc)^T
  Precond_solver : DEFAULT
  stepsize       :    0.08000000                  energy_gap     :    0.08000000
  eps_taylor     :   0.10000E-15                  max_taylor     :             4
  ----------------------------------- OT ---------------------------------------

  Step     Update method      Time    Convergence         Total energy    Change
  ------------------------------------------------------------------------------
     1 OT DIIS     0.80E-01    4.8     0.00053291      -902.7984647246 -9.03E+02
     2 OT DIIS     0.80E-01    6.0     0.00030713      -902.7995502521 -1.09E-03
     3 OT DIIS     0.80E-01    6.0     0.00018040      -902.8000171865 -4.67E-04
     4 OT DIIS     0.80E-01    6.0     0.00006840      -902.8001487287 -1.32E-04
     5 OT DIIS     0.80E-01    6.0     0.00003187      -902.8001670326 -1.83E-05
     6 OT DIIS     0.80E-01    6.0     0.00001641      -902.8001703339 -3.30E-06
     7 OT DIIS     0.80E-01    6.0     0.00000742      -902.8001712578 -9.24E-07

  *** SCF run converged in     7 steps ***


  Electronic density on regular grids:       -407.9999955606        0.0000044394
  Core density on regular grids:              407.9999999747       -0.0000000253
  Total charge density on r-space grids:        0.0000044141
  Total charge density g-space grids:           0.0000044141

  Overlap energy of the core charge distribution:               0.00000006643155
  Self energy of the core charge distribution:              -2342.23014539452743
  Core Hamiltonian energy:                                    682.71464100310391
  Hartree energy:                                             971.58704909656160
  Exchange-correlation energy:                               -214.87171602938909

  Total energy:                                              -902.80017125781922

 ENERGY| Total FORCE_EVAL ( QS ) energy [hartree]           -902.800171487872149

 Number of electrons:                                                        408
 Number of occupied orbitals:                                                204
 Number of molecular orbitals:                                               204

 Number of orbital functions:                                                314
 Number of independent orbital functions:                                    314

 Extrapolation method: ASPC


 SCF WAVEFUNCTION OPTIMIZATION

  ----------------------------------- OT ---------------------------------------
  Minimizer      : DIIS                : direct inversion
                                         in the iterative subspace
                                         using   7 DIIS vectors
                                         safer DIIS on
  Preconditioner : FULL_SINGLE_INVERSE : inversion of 
                                         H + eS - 2*(Sc)(c^T*H*c+const)(Sc)^T
  Precond_solver : DEFAULT
  stepsize       :    0.08000000                  energy_gap     :    0.08000000
  eps_taylor     :   0.10000E-15                  max_taylor     :             4
  ----------------------------------- OT ---------------------------------------

  Step     Update method      Time    Convergence         Total energy    Change
  ------------------------------------------------------------------------------
     1 OT DIIS     0.80E-01    4.8     0.00110681      -902.7940256120 -9.03E+02
     2 OT DIIS     0.80E-01    6.0     0.00061756      -902.7985428301 -4.52E-03
     3 OT DIIS     0.80E-01    6.0     0.00038349      -902.8002183902 -1.68E-03
     4 OT DIIS     0.80E-01    6.0     0.00014294      -902.8008097369 -5.91E-04
     5 OT DIIS     0.80E-01    6.0     0.00006636      -902.8008919563 -8.22E-05
     6 OT DIIS     0.80E-01    6.0     0.00003425      -902.8009060375 -1.41E-05
     7 OT DIIS     0.80E-01    6.0     0.00001557      -902.8009100723 -4.03E-06
     8 OT DIIS     0.80E-01    6.0     0.00000666      -902.8009110734 -1.00E-06

  *** SCF run converged in     8 steps ***


  Electronic density on regular grids:       -407.9999955863        0.0000044137
  Core density on regular grids:              407.9999999747       -0.0000000253
  Total charge density on r-space grids:        0.0000043884
  Total charge density g-space grids:           0.0000043884

  Overlap energy of the core charge distribution:               0.00000006483333
  Self energy of the core charge distribution:              -2342.23014539452743
  Core Hamiltonian energy:                                    682.76767858155972
  Hartree energy:                                             971.54644019853299
  Exchange-correlation energy:                               -214.88488452384550

  Total energy:                                              -902.80091107344685

 ENERGY| Total FORCE_EVAL ( QS ) energy [hartree]           -902.800911268589743

 OPT| **************************************************************************
 OPT| Step number                                                             35
 OPT| Optimization method                                                  LBFGS
 OPT| Total energy [hartree]                                     -902.8009112686
 OPT| Effective energy change [hartree]                            -0.0007994221
 OPT| Decrease in energy                                                     YES
 OPT| Used time [s]                                                      105.570
 OPT|
 OPT| Maximum step size                                             0.0296087767
 OPT| Convergence limit for maximum step size                       0.0030000000
 OPT| Maximum step size is converged                                          NO
 OPT|
 OPT| RMS step size                                                 0.0061493730
 OPT| Convergence limit for RMS step size                           0.0015000000
 OPT| RMS step size is converged                                              NO
 OPT|
 OPT| Maximum gradient                                              0.0061445153
 OPT| Convergence limit for maximum gradient                        0.0010000000
 OPT| Maximum gradient is converged                                           NO
 OPT|
 OPT| RMS gradient                                                  0.0014052038
 OPT| Convergence limit for RMS gradient                            0.0003000000
 OPT| RMS gradient is converged                                               NO
 OPT| **************************************************************************
 OPT| Estimated peak process memory after this step [MiB]                   1798

 --------------------------
 OPTIMIZATION STEP:     36
 --------------------------

 Number of electrons:                                                        408
 Number of occupied orbitals:                                                204
 Number of molecular orbitals:                                               204

 Number of orbital functions:                                                314
 Number of independent orbital functions:                                    314

 Extrapolation method: ASPC


 SCF WAVEFUNCTION OPTIMIZATION

  ----------------------------------- OT ---------------------------------------
  Minimizer      : DIIS                : direct inversion
                                         in the iterative subspace
                                         using   7 DIIS vectors
                                         safer DIIS on
  Preconditioner : FULL_SINGLE_INVERSE : inversion of 
                                         H + eS - 2*(Sc)(c^T*H*c+const)(Sc)^T
  Precond_solver : DEFAULT
  stepsize       :    0.08000000                  energy_gap     :    0.08000000
  eps_taylor     :   0.10000E-15                  max_taylor     :             4
  ----------------------------------- OT ---------------------------------------

  Step     Update method      Time    Convergence         Total energy    Change
  ------------------------------------------------------------------------------
     1 OT DIIS     0.80E-01    4.8     0.00119481      -902.7936938265 -9.03E+02
     2 OT DIIS     0.80E-01    6.0     0.00067088      -902.7989824482 -5.29E-03
     3 OT DIIS     0.80E-01    6.0     0.00041306      -902.8009984273 -2.02E-03
     4 OT DIIS     0.80E-01    6.0     0.00016001      -902.8017079732 -7.10E-04
     5 OT DIIS     0.80E-01    6.0     0.00007551      -902.8018088841 -1.01E-04
     6 OT DIIS     0.80E-01    6.0     0.00003761      -902.8018270781 -1.82E-05
     7 OT DIIS     0.80E-01    6.0     0.00001726      -902.8018320854 -5.01E-06
     8 OT DIIS     0.80E-01    6.0     0.00000723      -902.8018333207 -1.24E-06

  *** SCF run converged in     8 steps ***


  Electronic density on regular grids:       -407.9999953486        0.0000046514
  Core density on regular grids:              407.9999999747       -0.0000000253
  Total charge density on r-space grids:        0.0000046261
  Total charge density g-space grids:           0.0000046261

  Overlap energy of the core charge distribution:               0.00000006410543
  Self energy of the core charge distribution:              -2342.23014539452743
  Core Hamiltonian energy:                                    682.74357206943000
  Hartree energy:                                             971.56231439069313
  Exchange-correlation energy:                               -214.87757445037528

  Total energy:                                              -902.80183332067429

 ENERGY| Total FORCE_EVAL ( QS ) energy [hartree]           -902.801833537308539

 OPT| **************************************************************************
 OPT| Step number                                                             36
 OPT| Optimization method                                                  LBFGS
 OPT| Total energy [hartree]                                     -902.8018335373
 OPT| Effective energy change [hartree]                            -0.0009222687
 OPT| Decrease in energy                                                     YES
 OPT| Used time [s]                                                       55.785
 OPT|
 OPT| Maximum step size                                             0.0475589161
 OPT| Convergence limit for maximum step size                       0.0030000000
 OPT| Maximum step size is converged                                          NO
 OPT|
 OPT| RMS step size                                                 0.0070100216
 OPT| Convergence limit for RMS step size                           0.0015000000
 OPT| RMS step size is converged                                              NO
 OPT|
 OPT| Maximum gradient                                              0.0095730974
 OPT| Convergence limit for maximum gradient                        0.0010000000
 OPT| Maximum gradient is converged                                           NO
 OPT|
 OPT| RMS gradient                                                  0.0013508424
 OPT| Convergence limit for RMS gradient                            0.0003000000
 OPT| RMS gradient is converged                                               NO
 OPT| **************************************************************************
 OPT| Estimated peak process memory after this step [MiB]                   1798

 --------------------------
 OPTIMIZATION STEP:     37
 --------------------------

 Number of electrons:                                                        408
 Number of occupied orbitals:                                                204
 Number of molecular orbitals:                                               204

 Number of orbital functions:                                                314
 Number of independent orbital functions:                                    314

 Extrapolation method: ASPC


 SCF WAVEFUNCTION OPTIMIZATION

  ----------------------------------- OT ---------------------------------------
  Minimizer      : DIIS                : direct inversion
                                         in the iterative subspace
                                         using   7 DIIS vectors
                                         safer DIIS on
  Preconditioner : FULL_SINGLE_INVERSE : inversion of 
                                         H + eS - 2*(Sc)(c^T*H*c+const)(Sc)^T
  Precond_solver : DEFAULT
  stepsize       :    0.08000000                  energy_gap     :    0.08000000
  eps_taylor     :   0.10000E-15                  max_taylor     :             4
  ----------------------------------- OT ---------------------------------------

  Step     Update method      Time    Convergence         Total energy    Change
  ------------------------------------------------------------------------------
     1 OT DIIS     0.80E-01    4.8     0.00077004      -902.7992043211 -9.03E+02
     2 OT DIIS     0.80E-01    6.0     0.00043915      -902.8014192701 -2.21E-03
     3 OT DIIS     0.80E-01    6.0     0.00026623      -902.8023091734 -8.90E-04
     4 OT DIIS     0.80E-01    6.0     0.00010172      -902.8026273619 -3.18E-04
     5 OT DIIS     0.80E-01    6.0     0.00004578      -902.8026695734 -4.22E-05
     6 OT DIIS     0.80E-01    6.0     0.00002245      -902.8026768010 -7.23E-06
     7 OT DIIS     0.80E-01    6.0     0.00001108      -902.8026785695 -1.77E-06
     8 OT DIIS     0.80E-01    6.0     0.00000448      -902.8026790424 -4.73E-07

  *** SCF run converged in     8 steps ***


  Electronic density on regular grids:       -407.9999951714        0.0000048286
  Core density on regular grids:              407.9999999747       -0.0000000253
  Total charge density on r-space grids:        0.0000048033
  Total charge density g-space grids:           0.0000048033

  Overlap energy of the core charge distribution:               0.00000006354923
  Self energy of the core charge distribution:              -2342.23014539452743
  Core Hamiltonian energy:                                    682.74524067170353
  Hartree energy:                                             971.55937653927356
  Exchange-correlation energy:                               -214.87715092243405

  Total energy:                                              -902.80267904243533

 ENERGY| Total FORCE_EVAL ( QS ) energy [hartree]           -902.802679127907368

 OPT| **************************************************************************
 OPT| Step number                                                             37
 OPT| Optimization method                                                  LBFGS
 OPT| Total energy [hartree]                                     -902.8026791279
 OPT| Effective energy change [hartree]                            -0.0008455906
 OPT| Decrease in energy                                                     YES
 OPT| Used time [s]                                                       55.774
 OPT|
 OPT| Maximum step size                                             0.0384660734
 OPT| Convergence limit for maximum step size                       0.0030000000
 OPT| Maximum step size is converged                                          NO
 OPT|
 OPT| RMS step size                                                 0.0064519157
 OPT| Convergence limit for RMS step size                           0.0015000000
 OPT| RMS step size is converged                                              NO
 OPT|
 OPT| Maximum gradient                                              0.0053644367
 OPT| Convergence limit for maximum gradient                        0.0010000000
 OPT| Maximum gradient is converged                                           NO
 OPT|
 OPT| RMS gradient                                                  0.0011894145
 OPT| Convergence limit for RMS gradient                            0.0003000000
 OPT| RMS gradient is converged                                               NO
 OPT| **************************************************************************
 OPT| Estimated peak process memory after this step [MiB]                   1798

 --------------------------
 OPTIMIZATION STEP:     38
 --------------------------

 Number of electrons:                                                        408
 Number of occupied orbitals:                                                204
 Number of molecular orbitals:                                               204

 Number of orbital functions:                                                314
 Number of independent orbital functions:                                    314

 Extrapolation method: ASPC


 SCF WAVEFUNCTION OPTIMIZATION

  ----------------------------------- OT ---------------------------------------
  Minimizer      : DIIS                : direct inversion
                                         in the iterative subspace
                                         using   7 DIIS vectors
                                         safer DIIS on
  Preconditioner : FULL_SINGLE_INVERSE : inversion of 
                                         H + eS - 2*(Sc)(c^T*H*c+const)(Sc)^T
  Precond_solver : DEFAULT
  stepsize       :    0.08000000                  energy_gap     :    0.08000000
  eps_taylor     :   0.10000E-15                  max_taylor     :             4
  ----------------------------------- OT ---------------------------------------

  Step     Update method      Time    Convergence         Total energy    Change
  ------------------------------------------------------------------------------
     1 OT DIIS     0.80E-01    4.8     0.00034787      -902.8025659294 -9.03E+02
     2 OT DIIS     0.80E-01    6.0     0.00019306      -902.8030178660 -4.52E-04
     3 OT DIIS     0.80E-01    6.0     0.00010687      -902.8031983593 -1.80E-04
     4 OT DIIS     0.80E-01    6.0     0.00004277      -902.8032528903 -5.45E-05
     5 OT DIIS     0.80E-01    6.0     0.00001890      -902.8032604848 -7.59E-06
     6 OT DIIS     0.80E-01    6.0     0.00000793      -902.8032618696 -1.38E-06

  *** SCF run converged in     6 steps ***


  Electronic density on regular grids:       -407.9999950984        0.0000049016
  Core density on regular grids:              407.9999999747       -0.0000000253
  Total charge density on r-space grids:        0.0000048762
  Total charge density g-space grids:           0.0000048762

  Overlap energy of the core charge distribution:               0.00000006485485
  Self energy of the core charge distribution:              -2342.23014539452743
  Core Hamiltonian energy:                                    682.75728650914357
  Hartree energy:                                             971.55096863845711
  Exchange-correlation energy:                               -214.88137168748085

  Total energy:                                              -902.80326186955290

 ENERGY| Total FORCE_EVAL ( QS ) energy [hartree]           -902.803262117496388

 OPT| **************************************************************************
 OPT| Step number                                                             38
 OPT| Optimization method                                                  LBFGS
 OPT| Total energy [hartree]                                     -902.8032621175
 OPT| Effective energy change [hartree]                            -0.0005829896
 OPT| Decrease in energy                                                     YES
 OPT| Used time [s]                                                       43.764
 OPT|
 OPT| Maximum step size                                             0.0336832048
 OPT| Convergence limit for maximum step size                       0.0030000000
 OPT| Maximum step size is converged                                          NO
 OPT|
 OPT| RMS step size                                                 0.0049527973
 OPT| Convergence limit for RMS step size                           0.0015000000
 OPT| RMS step size is converged                                              NO
 OPT|
 OPT| Maximum gradient                                              0.0035097721
 OPT| Convergence limit for maximum gradient                        0.0010000000
 OPT| Maximum gradient is converged                                           NO
 OPT|
 OPT| RMS gradient                                                  0.0009918649
 OPT| Convergence limit for RMS gradient                            0.0003000000
 OPT| RMS gradient is converged                                               NO
 OPT| **************************************************************************
 OPT| Estimated peak process memory after this step [MiB]                   1798

 --------------------------
 OPTIMIZATION STEP:     39
 --------------------------

 Number of electrons:                                                        408
 Number of occupied orbitals:                                                204
 Number of molecular orbitals:                                               204

 Number of orbital functions:                                                314
 Number of independent orbital functions:                                    314

 Extrapolation method: ASPC


 SCF WAVEFUNCTION OPTIMIZATION

  ----------------------------------- OT ---------------------------------------
  Minimizer      : DIIS                : direct inversion
                                         in the iterative subspace
                                         using   7 DIIS vectors
                                         safer DIIS on
  Preconditioner : FULL_SINGLE_INVERSE : inversion of 
                                         H + eS - 2*(Sc)(c^T*H*c+const)(Sc)^T
  Precond_solver : DEFAULT
  stepsize       :    0.08000000                  energy_gap     :    0.08000000
  eps_taylor     :   0.10000E-15                  max_taylor     :             4
  ----------------------------------- OT ---------------------------------------

  Step     Update method      Time    Convergence         Total energy    Change
  ------------------------------------------------------------------------------
     1 OT DIIS     0.80E-01    4.8     0.00021978      -902.8037014693 -9.03E+02
     2 OT DIIS     0.80E-01    6.0     0.00011544      -902.8038705558 -1.69E-04
     3 OT DIIS     0.80E-01    6.0     0.00006955      -902.8039234506 -5.29E-05
     4 OT DIIS     0.80E-01    6.0     0.00002738      -902.8039444283 -2.10E-05
     5 OT DIIS     0.80E-01    6.0     0.00001366      -902.8039475822 -3.15E-06
     6 OT DIIS     0.80E-01    6.0     0.00000645      -902.8039483014 -7.19E-07

  *** SCF run converged in     6 steps ***


  Electronic density on regular grids:       -407.9999950351        0.0000049649
  Core density on regular grids:              407.9999999746       -0.0000000254
  Total charge density on r-space grids:        0.0000049395
  Total charge density g-space grids:           0.0000049395

  Overlap energy of the core charge distribution:               0.00000006382535
  Self energy of the core charge distribution:              -2342.23014539452743
  Core Hamiltonian energy:                                    682.78230564610965
  Hartree energy:                                             971.53123174227244
  Exchange-correlation energy:                               -214.88734035903718

  Total energy:                                              -902.80394830135720

 ENERGY| Total FORCE_EVAL ( QS ) energy [hartree]           -902.803948452308646

 OPT| **************************************************************************
 OPT| Step number                                                             39
 OPT| Optimization method                                                  LBFGS
 OPT| Total energy [hartree]                                     -902.8039484523
 OPT| Effective energy change [hartree]                            -0.0006863348
 OPT| Decrease in energy                                                     YES
 OPT| Used time [s]                                                       43.768
 OPT|
 OPT| Maximum step size                                             0.0525722456
 OPT| Convergence limit for maximum step size                       0.0030000000
 OPT| Maximum step size is converged                                          NO
 OPT|
 OPT| RMS step size                                                 0.0074652716
 OPT| Convergence limit for RMS step size                           0.0015000000
 OPT| RMS step size is converged                                              NO
 OPT|
 OPT| Maximum gradient                                              0.0051028862
 OPT| Convergence limit for maximum gradient                        0.0010000000
 OPT| Maximum gradient is converged                                           NO
 OPT|
 OPT| RMS gradient                                                  0.0010244164
 OPT| Convergence limit for RMS gradient                            0.0003000000
 OPT| RMS gradient is converged                                               NO
 OPT| **************************************************************************
 OPT| Estimated peak process memory after this step [MiB]                   1798

 --------------------------
 OPTIMIZATION STEP:     40
 --------------------------

 Number of electrons:                                                        408
 Number of occupied orbitals:                                                204
 Number of molecular orbitals:                                               204

 Number of orbital functions:                                                314
 Number of independent orbital functions:                                    314

 Extrapolation method: ASPC


 SCF WAVEFUNCTION OPTIMIZATION

  ----------------------------------- OT ---------------------------------------
  Minimizer      : DIIS                : direct inversion
                                         in the iterative subspace
                                         using   7 DIIS vectors
                                         safer DIIS on
  Preconditioner : FULL_SINGLE_INVERSE : inversion of 
                                         H + eS - 2*(Sc)(c^T*H*c+const)(Sc)^T
  Precond_solver : DEFAULT
  stepsize       :    0.08000000                  energy_gap     :    0.08000000
  eps_taylor     :   0.10000E-15                  max_taylor     :             4
  ----------------------------------- OT ---------------------------------------

  Step     Update method      Time    Convergence         Total energy    Change
  ------------------------------------------------------------------------------
     1 OT DIIS     0.80E-01    4.8     0.00025460      -902.8042935109 -9.03E+02
     2 OT DIIS     0.80E-01    6.0     0.00013250      -902.8045123682 -2.19E-04
     3 OT DIIS     0.80E-01    6.0     0.00008233      -902.8045742885 -6.19E-05
     4 OT DIIS     0.80E-01    6.2     0.00003189      -902.8046017450 -2.75E-05
     5 OT DIIS     0.80E-01    6.0     0.00001467      -902.8046057791 -4.03E-06
     6 OT DIIS     0.80E-01    6.0     0.00000641      -902.8046066729 -8.94E-07

  *** SCF run converged in     6 steps ***


  Electronic density on regular grids:       -407.9999949405        0.0000050595
  Core density on regular grids:              407.9999999746       -0.0000000254
  Total charge density on r-space grids:        0.0000050341
  Total charge density g-space grids:           0.0000050341

  Overlap energy of the core charge distribution:               0.00000006654807
  Self energy of the core charge distribution:              -2342.23014539452743
  Core Hamiltonian energy:                                    682.80240720865731
  Hartree energy:                                             971.51739239456151
  Exchange-correlation energy:                               -214.89426094816068

  Total energy:                                              -902.80460667292107

 ENERGY| Total FORCE_EVAL ( QS ) energy [hartree]           -902.804606842912676

 OPT| **************************************************************************
 OPT| Step number                                                             40
 OPT| Optimization method                                                  LBFGS
 OPT| Total energy [hartree]                                     -902.8046068429
 OPT| Effective energy change [hartree]                            -0.0006583906
 OPT| Decrease in energy                                                     YES
 OPT| Used time [s]                                                       43.967
 OPT|
 OPT| Maximum step size                                             0.0578060541
 OPT| Convergence limit for maximum step size                       0.0030000000
 OPT| Maximum step size is converged                                          NO
 OPT|
 OPT| RMS step size                                                 0.0078402789
 OPT| Convergence limit for RMS step size                           0.0015000000
 OPT| RMS step size is converged                                              NO
 OPT|
 OPT| Maximum gradient                                              0.0064499034
 OPT| Convergence limit for maximum gradient                        0.0010000000
 OPT| Maximum gradient is converged                                           NO
 OPT|
 OPT| RMS gradient                                                  0.0013613593
 OPT| Convergence limit for RMS gradient                            0.0003000000
 OPT| RMS gradient is converged                                               NO
 OPT| **************************************************************************
 OPT| Estimated peak process memory after this step [MiB]                   1798

 --------------------------
 OPTIMIZATION STEP:     41
 --------------------------

 Number of electrons:                                                        408
 Number of occupied orbitals:                                                204
 Number of molecular orbitals:                                               204

 Number of orbital functions:                                                314
 Number of independent orbital functions:                                    314

 Extrapolation method: ASPC


 SCF WAVEFUNCTION OPTIMIZATION

  ----------------------------------- OT ---------------------------------------
  Minimizer      : DIIS                : direct inversion
                                         in the iterative subspace
                                         using   7 DIIS vectors
                                         safer DIIS on
  Preconditioner : FULL_SINGLE_INVERSE : inversion of 
                                         H + eS - 2*(Sc)(c^T*H*c+const)(Sc)^T
  Precond_solver : DEFAULT
  stepsize       :    0.08000000                  energy_gap     :    0.08000000
  eps_taylor     :   0.10000E-15                  max_taylor     :             4
  ----------------------------------- OT ---------------------------------------

  Step     Update method      Time    Convergence         Total energy    Change
  ------------------------------------------------------------------------------
     1 OT DIIS     0.80E-01    4.8     0.00024475      -902.8051196255 -9.03E+02
     2 OT DIIS     0.80E-01    6.0     0.00012485      -902.8053255778 -2.06E-04
     3 OT DIIS     0.80E-01    6.0     0.00007580      -902.8053844855 -5.89E-05
     4 OT DIIS     0.80E-01    6.0     0.00002905      -902.8054074799 -2.30E-05
     5 OT DIIS     0.80E-01    6.2     0.00001299      -902.8054112499 -3.77E-06
     6 OT DIIS     0.80E-01    6.1     0.00000576      -902.8054119870 -7.37E-07

  *** SCF run converged in     6 steps ***


  Electronic density on regular grids:       -407.9999947906        0.0000052094
  Core density on regular grids:              407.9999999748       -0.0000000252
  Total charge density on r-space grids:        0.0000051842
  Total charge density g-space grids:           0.0000051842

  Overlap energy of the core charge distribution:               0.00000006541126
  Self energy of the core charge distribution:              -2342.23014539452743
  Core Hamiltonian energy:                                    682.79476854016821
  Hartree energy:                                             971.52194811752702
  Exchange-correlation energy:                               -214.89198331554044

  Total energy:                                              -902.80541198696130

 ENERGY| Total FORCE_EVAL ( QS ) energy [hartree]           -902.805412114221554

 OPT| **************************************************************************
 OPT| Step number                                                             41
 OPT| Optimization method                                                  LBFGS
 OPT| Total energy [hartree]                                     -902.8054121142
 OPT| Effective energy change [hartree]                            -0.0008052713
 OPT| Decrease in energy                                                     YES
 OPT| Used time [s]                                                       44.091
 OPT|
 OPT| Maximum step size                                             0.0799996389
 OPT| Convergence limit for maximum step size                       0.0030000000
 OPT| Maximum step size is converged                                          NO
 OPT|
 OPT| RMS step size                                                 0.0099361115
 OPT| Convergence limit for RMS step size                           0.0015000000
 OPT| RMS step size is converged                                              NO
 OPT|
 OPT| Maximum gradient                                              0.0059137370
 OPT| Convergence limit for maximum gradient                        0.0010000000
 OPT| Maximum gradient is converged                                           NO
 OPT|
 OPT| RMS gradient                                                  0.0012528897
 OPT| Convergence limit for RMS gradient                            0.0003000000
 OPT| RMS gradient is converged                                               NO
 OPT| **************************************************************************
 OPT| Estimated peak process memory after this step [MiB]                   1798

 --------------------------
 OPTIMIZATION STEP:     42
 --------------------------

 Number of electrons:                                                        408
 Number of occupied orbitals:                                                204
 Number of molecular orbitals:                                               204

 Number of orbital functions:                                                314
 Number of independent orbital functions:                                    314

 Extrapolation method: ASPC


 SCF WAVEFUNCTION OPTIMIZATION

  ----------------------------------- OT ---------------------------------------
  Minimizer      : DIIS                : direct inversion
                                         in the iterative subspace
                                         using   7 DIIS vectors
                                         safer DIIS on
  Preconditioner : FULL_SINGLE_INVERSE : inversion of 
                                         H + eS - 2*(Sc)(c^T*H*c+const)(Sc)^T
  Precond_solver : DEFAULT
  stepsize       :    0.08000000                  energy_gap     :    0.08000000
  eps_taylor     :   0.10000E-15                  max_taylor     :             4
  ----------------------------------- OT ---------------------------------------

  Step     Update method      Time    Convergence         Total energy    Change
  ------------------------------------------------------------------------------
     1 OT DIIS     0.80E-01    4.8     0.00021131      -902.8060072725 -9.03E+02
     2 OT DIIS     0.80E-01    6.0     0.00010453      -902.8061615319 -1.54E-04
     3 OT DIIS     0.80E-01    6.0     0.00006315      -902.8062040665 -4.25E-05
     4 OT DIIS     0.80E-01    6.0     0.00002629      -902.8062185124 -1.44E-05
     5 OT DIIS     0.80E-01    6.0     0.00001150      -902.8062213168 -2.80E-06
     6 OT DIIS     0.80E-01    6.0     0.00000519      -902.8062218931 -5.76E-07

  *** SCF run converged in     6 steps ***


  Electronic density on regular grids:       -407.9999946906        0.0000053094
  Core density on regular grids:              407.9999999748       -0.0000000252
  Total charge density on r-space grids:        0.0000052841
  Total charge density g-space grids:           0.0000052841

  Overlap energy of the core charge distribution:               0.00000006362682
  Self energy of the core charge distribution:              -2342.23014539452743
  Core Hamiltonian energy:                                    682.77242651364247
  Hartree energy:                                             971.53756004805030
  Exchange-correlation energy:                               -214.88606312388197

  Total energy:                                              -902.80622189308963

 ENERGY| Total FORCE_EVAL ( QS ) energy [hartree]           -902.806221986420496

 OPT| **************************************************************************
 OPT| Step number                                                             42
 OPT| Optimization method                                                  LBFGS
 OPT| Total energy [hartree]                                     -902.8062219864
 OPT| Effective energy change [hartree]                            -0.0008098722
 OPT| Decrease in energy                                                     YES
 OPT| Used time [s]                                                       43.882
 OPT|
 OPT| Maximum step size                                             0.1005369951
 OPT| Convergence limit for maximum step size                       0.0030000000
 OPT| Maximum step size is converged                                          NO
 OPT|
 OPT| RMS step size                                                 0.0127611974
 OPT| Convergence limit for RMS step size                           0.0015000000
 OPT| RMS step size is converged                                              NO
 OPT|
 OPT| Maximum gradient                                              0.0054014087
 OPT| Convergence limit for maximum gradient                        0.0010000000
 OPT| Maximum gradient is converged                                           NO
 OPT|
 OPT| RMS gradient                                                  0.0012965027
 OPT| Convergence limit for RMS gradient                            0.0003000000
 OPT| RMS gradient is converged                                               NO
 OPT| **************************************************************************
 OPT| Estimated peak process memory after this step [MiB]                   1798

 --------------------------
 OPTIMIZATION STEP:     43
 --------------------------

 Number of electrons:                                                        408
 Number of occupied orbitals:                                                204
 Number of molecular orbitals:                                               204

 Number of orbital functions:                                                314
 Number of independent orbital functions:                                    314

 Extrapolation method: ASPC


 SCF WAVEFUNCTION OPTIMIZATION

  ----------------------------------- OT ---------------------------------------
  Minimizer      : DIIS                : direct inversion
                                         in the iterative subspace
                                         using   7 DIIS vectors
                                         safer DIIS on
  Preconditioner : FULL_SINGLE_INVERSE : inversion of 
                                         H + eS - 2*(Sc)(c^T*H*c+const)(Sc)^T
  Precond_solver : DEFAULT
  stepsize       :    0.08000000                  energy_gap     :    0.08000000
  eps_taylor     :   0.10000E-15                  max_taylor     :             4
  ----------------------------------- OT ---------------------------------------

  Step     Update method      Time    Convergence         Total energy    Change
  ------------------------------------------------------------------------------
     1 OT DIIS     0.80E-01    4.8     0.00040800      -902.8058986006 -9.03E+02
     2 OT DIIS     0.80E-01    6.0     0.00023586      -902.8065324542 -6.34E-04
     3 OT DIIS     0.80E-01    6.0     0.00013798      -902.8068038617 -2.71E-04
     4 OT DIIS     0.80E-01    6.0     0.00004938      -902.8068865493 -8.27E-05
     5 OT DIIS     0.80E-01    6.0     0.00002151      -902.8068965447 -1.00E-05
     6 OT DIIS     0.80E-01    6.0     0.00001045      -902.8068982661 -1.72E-06
     7 OT DIIS     0.80E-01    6.0     0.00000498      -902.8068986659 -4.00E-07

  *** SCF run converged in     7 steps ***


  Electronic density on regular grids:       -407.9999946528        0.0000053472
  Core density on regular grids:              407.9999999748       -0.0000000252
  Total charge density on r-space grids:        0.0000053220
  Total charge density g-space grids:           0.0000053220

  Overlap energy of the core charge distribution:               0.00000006467423
  Self energy of the core charge distribution:              -2342.23014539452743
  Core Hamiltonian energy:                                    682.75999373366608
  Hartree energy:                                             971.54758570143542
  Exchange-correlation energy:                               -214.88433277112571

  Total energy:                                              -902.80689866587750

 ENERGY| Total FORCE_EVAL ( QS ) energy [hartree]           -902.806898768421888

 OPT| **************************************************************************
 OPT| Step number                                                             43
 OPT| Optimization method                                                  LBFGS
 OPT| Total energy [hartree]                                     -902.8068987684
 OPT| Effective energy change [hartree]                            -0.0006767820
 OPT| Decrease in energy                                                     YES
 OPT| Used time [s]                                                       49.795
 OPT|
 OPT| Maximum step size                                             0.0416480110
 OPT| Convergence limit for maximum step size                       0.0030000000
 OPT| Maximum step size is converged                                          NO
 OPT|
 OPT| RMS step size                                                 0.0064594580
 OPT| Convergence limit for RMS step size                           0.0015000000
 OPT| RMS step size is converged                                              NO
 OPT|
 OPT| Maximum gradient                                              0.0082269105
 OPT| Convergence limit for maximum gradient                        0.0010000000
 OPT| Maximum gradient is converged                                           NO
 OPT|
 OPT| RMS gradient                                                  0.0015075327
 OPT| Convergence limit for RMS gradient                            0.0003000000
 OPT| RMS gradient is converged                                               NO
 OPT| **************************************************************************
 OPT| Estimated peak process memory after this step [MiB]                   1798

 --------------------------
 OPTIMIZATION STEP:     44
 --------------------------

 Number of electrons:                                                        408
 Number of occupied orbitals:                                                204
 Number of molecular orbitals:                                               204

 Number of orbital functions:                                                314
 Number of independent orbital functions:                                    314

 Extrapolation method: ASPC


 SCF WAVEFUNCTION OPTIMIZATION

  ----------------------------------- OT ---------------------------------------
  Minimizer      : DIIS                : direct inversion
                                         in the iterative subspace
                                         using   7 DIIS vectors
                                         safer DIIS on
  Preconditioner : FULL_SINGLE_INVERSE : inversion of 
                                         H + eS - 2*(Sc)(c^T*H*c+const)(Sc)^T
  Precond_solver : DEFAULT
  stepsize       :    0.08000000                  energy_gap     :    0.08000000
  eps_taylor     :   0.10000E-15                  max_taylor     :             4
  ----------------------------------- OT ---------------------------------------

  Step     Update method      Time    Convergence         Total energy    Change
  ------------------------------------------------------------------------------
     1 OT DIIS     0.80E-01    4.8     0.00037752      -902.8068072162 -9.03E+02
     2 OT DIIS     0.80E-01    6.0     0.00020740      -902.8073245709 -5.17E-04
     3 OT DIIS     0.80E-01    6.0     0.00012787      -902.8075088935 -1.84E-04
     4 OT DIIS     0.80E-01    6.0     0.00005107      -902.8075788072 -6.99E-05
     5 OT DIIS     0.80E-01    6.0     0.00002247      -902.8075894694 -1.07E-05
     6 OT DIIS     0.80E-01    6.0     0.00001005      -902.8075913426 -1.87E-06
     7 OT DIIS     0.80E-01    6.0     0.00000480      -902.8075917023 -3.60E-07

  *** SCF run converged in     7 steps ***


  Electronic density on regular grids:       -407.9999946463        0.0000053537
  Core density on regular grids:              407.9999999749       -0.0000000251
  Total charge density on r-space grids:        0.0000053286
  Total charge density g-space grids:           0.0000053286

  Overlap energy of the core charge distribution:               0.00000006390731
  Self energy of the core charge distribution:              -2342.23014539452743
  Core Hamiltonian energy:                                    682.74788768543237
  Hartree energy:                                             971.55636827957608
  Exchange-correlation energy:                               -214.88170233665559

  Total energy:                                              -902.80759170226702

 ENERGY| Total FORCE_EVAL ( QS ) energy [hartree]           -902.807591793427719

 OPT| **************************************************************************
 OPT| Step number                                                             44
 OPT| Optimization method                                                  LBFGS
 OPT| Total energy [hartree]                                     -902.8075917934
 OPT| Effective energy change [hartree]                            -0.0006930250
 OPT| Decrease in energy                                                     YES
 OPT| Used time [s]                                                       49.797
 OPT|
 OPT| Maximum step size                                             0.0331394466
 OPT| Convergence limit for maximum step size                       0.0030000000
 OPT| Maximum step size is converged                                          NO
 OPT|
 OPT| RMS step size                                                 0.0051255213
 OPT| Convergence limit for RMS step size                           0.0015000000
 OPT| RMS step size is converged                                              NO
 OPT|
 OPT| Maximum gradient                                              0.0039431489
 OPT| Convergence limit for maximum gradient                        0.0010000000
 OPT| Maximum gradient is converged                                           NO
 OPT|
 OPT| RMS gradient                                                  0.0009279466
 OPT| Convergence limit for RMS gradient                            0.0003000000
 OPT| RMS gradient is converged                                               NO
 OPT| **************************************************************************
 OPT| Estimated peak process memory after this step [MiB]                   1798

 --------------------------
 OPTIMIZATION STEP:     45
 --------------------------

 Number of electrons:                                                        408
 Number of occupied orbitals:                                                204
 Number of molecular orbitals:                                               204

 Number of orbital functions:                                                314
 Number of independent orbital functions:                                    314

 Extrapolation method: ASPC


 SCF WAVEFUNCTION OPTIMIZATION

  ----------------------------------- OT ---------------------------------------
  Minimizer      : DIIS                : direct inversion
                                         in the iterative subspace
                                         using   7 DIIS vectors
                                         safer DIIS on
  Preconditioner : FULL_SINGLE_INVERSE : inversion of 
                                         H + eS - 2*(Sc)(c^T*H*c+const)(Sc)^T
  Precond_solver : DEFAULT
  stepsize       :    0.08000000                  energy_gap     :    0.08000000
  eps_taylor     :   0.10000E-15                  max_taylor     :             4
  ----------------------------------- OT ---------------------------------------

  Step     Update method      Time    Convergence         Total energy    Change
  ------------------------------------------------------------------------------
     1 OT DIIS     0.80E-01    4.8     0.00023805      -902.8080113949 -9.03E+02
     2 OT DIIS     0.80E-01    6.0     0.00012363      -902.8082147648 -2.03E-04
     3 OT DIIS     0.80E-01    6.0     0.00007149      -902.8082812883 -6.65E-05
     4 OT DIIS     0.80E-01    6.0     0.00003032      -902.8083022810 -2.10E-05
     5 OT DIIS     0.80E-01    6.0     0.00001461      -902.8083060642 -3.78E-06
     6 OT DIIS     0.80E-01    6.0     0.00000668      -902.8083068851 -8.21E-07

  *** SCF run converged in     6 steps ***


  Electronic density on regular grids:       -407.9999946144        0.0000053856
  Core density on regular grids:              407.9999999749       -0.0000000251
  Total charge density on r-space grids:        0.0000053605
  Total charge density g-space grids:           0.0000053605

  Overlap energy of the core charge distribution:               0.00000006348018
  Self energy of the core charge distribution:              -2342.23014539452743
  Core Hamiltonian energy:                                    682.73162419532150
  Hartree energy:                                             971.56917328838722
  Exchange-correlation energy:                               -214.87895903776754

  Total energy:                                              -902.80830688510628

 ENERGY| Total FORCE_EVAL ( QS ) energy [hartree]           -902.808307055532396

 OPT| **************************************************************************
 OPT| Step number                                                             45
 OPT| Optimization method                                                  LBFGS
 OPT| Total energy [hartree]                                     -902.8083070555
 OPT| Effective energy change [hartree]                            -0.0007152621
 OPT| Decrease in energy                                                     YES
 OPT| Used time [s]                                                       43.773
 OPT|
 OPT| Maximum step size                                             0.0735496055
 OPT| Convergence limit for maximum step size                       0.0030000000
 OPT| Maximum step size is converged                                          NO
 OPT|
 OPT| RMS step size                                                 0.0101724776
 OPT| Convergence limit for RMS step size                           0.0015000000
 OPT| RMS step size is converged                                              NO
 OPT|
 OPT| Maximum gradient                                              0.0038882846
 OPT| Convergence limit for maximum gradient                        0.0010000000
 OPT| Maximum gradient is converged                                           NO
 OPT|
 OPT| RMS gradient                                                  0.0009215450
 OPT| Convergence limit for RMS gradient                            0.0003000000
 OPT| RMS gradient is converged                                               NO
 OPT| **************************************************************************
 OPT| Estimated peak process memory after this step [MiB]                   1798

 --------------------------
 OPTIMIZATION STEP:     46
 --------------------------

 Number of electrons:                                                        408
 Number of occupied orbitals:                                                204
 Number of molecular orbitals:                                               204

 Number of orbital functions:                                                314
 Number of independent orbital functions:                                    314

 Extrapolation method: ASPC


 SCF WAVEFUNCTION OPTIMIZATION

  ----------------------------------- OT ---------------------------------------
  Minimizer      : DIIS                : direct inversion
                                         in the iterative subspace
                                         using   7 DIIS vectors
                                         safer DIIS on
  Preconditioner : FULL_SINGLE_INVERSE : inversion of 
                                         H + eS - 2*(Sc)(c^T*H*c+const)(Sc)^T
  Precond_solver : DEFAULT
  stepsize       :    0.08000000                  energy_gap     :    0.08000000
  eps_taylor     :   0.10000E-15                  max_taylor     :             4
  ----------------------------------- OT ---------------------------------------

  Step     Update method      Time    Convergence         Total energy    Change
  ------------------------------------------------------------------------------
     1 OT DIIS     0.80E-01    4.8     0.00018162      -902.8087480180 -9.03E+02
     2 OT DIIS     0.80E-01    6.0     0.00009943      -902.8088681841 -1.20E-04
     3 OT DIIS     0.80E-01    6.0     0.00006042      -902.8089115171 -4.33E-05
     4 OT DIIS     0.80E-01    6.0     0.00002499      -902.8089271862 -1.57E-05
     5 OT DIIS     0.80E-01    6.0     0.00001075      -902.8089296759 -2.49E-06
     6 OT DIIS     0.80E-01    6.0     0.00000492      -902.8089301350 -4.59E-07

  *** SCF run converged in     6 steps ***


  Electronic density on regular grids:       -407.9999944765        0.0000055235
  Core density on regular grids:              407.9999999747       -0.0000000253
  Total charge density on r-space grids:        0.0000054982
  Total charge density g-space grids:           0.0000054982

  Overlap energy of the core charge distribution:               0.00000006414665
  Self energy of the core charge distribution:              -2342.23014539452743
  Core Hamiltonian energy:                                    682.70972172863605
  Hartree energy:                                             971.58630274200073
  Exchange-correlation energy:                               -214.87480927522907

  Total energy:                                              -902.80893013497314

 ENERGY| Total FORCE_EVAL ( QS ) energy [hartree]           -902.808930222759386

 OPT| **************************************************************************
 OPT| Step number                                                             46
 OPT| Optimization method                                                  LBFGS
 OPT| Total energy [hartree]                                     -902.8089302228
 OPT| Effective energy change [hartree]                            -0.0006231672
 OPT| Decrease in energy                                                     YES
 OPT| Used time [s]                                                       43.778
 OPT|
 OPT| Maximum step size                                             0.0878933180
 OPT| Convergence limit for maximum step size                       0.0030000000
 OPT| Maximum step size is converged                                          NO
 OPT|
 OPT| RMS step size                                                 0.0124525777
 OPT| Convergence limit for RMS step size                           0.0015000000
 OPT| RMS step size is converged                                              NO
 OPT|
 OPT| Maximum gradient                                              0.0066013086
 OPT| Convergence limit for maximum gradient                        0.0010000000
 OPT| Maximum gradient is converged                                           NO
 OPT|
 OPT| RMS gradient                                                  0.0013126281
 OPT| Convergence limit for RMS gradient                            0.0003000000
 OPT| RMS gradient is converged                                               NO
 OPT| **************************************************************************
 OPT| Estimated peak process memory after this step [MiB]                   1798

 --------------------------
 OPTIMIZATION STEP:     47
 --------------------------

 Number of electrons:                                                        408
 Number of occupied orbitals:                                                204
 Number of molecular orbitals:                                               204

 Number of orbital functions:                                                314
 Number of independent orbital functions:                                    314

 Extrapolation method: ASPC


 SCF WAVEFUNCTION OPTIMIZATION

  ----------------------------------- OT ---------------------------------------
  Minimizer      : DIIS                : direct inversion
                                         in the iterative subspace
                                         using   7 DIIS vectors
                                         safer DIIS on
  Preconditioner : FULL_SINGLE_INVERSE : inversion of 
                                         H + eS - 2*(Sc)(c^T*H*c+const)(Sc)^T
  Precond_solver : DEFAULT
  stepsize       :    0.08000000                  energy_gap     :    0.08000000
  eps_taylor     :   0.10000E-15                  max_taylor     :             4
  ----------------------------------- OT ---------------------------------------

  Step     Update method      Time    Convergence         Total energy    Change
  ------------------------------------------------------------------------------
     1 OT DIIS     0.80E-01    4.8     0.00021698      -902.8092450045 -9.03E+02
     2 OT DIIS     0.80E-01    6.0     0.00011117      -902.8094097142 -1.65E-04
     3 OT DIIS     0.80E-01    6.0     0.00006828      -902.8094589360 -4.92E-05
     4 OT DIIS     0.80E-01    6.0     0.00002862      -902.8094770822 -1.81E-05
     5 OT DIIS     0.80E-01    6.0     0.00001327      -902.8094806806 -3.60E-06
     6 OT DIIS     0.80E-01    6.0     0.00000567      -902.8094814328 -7.52E-07

  *** SCF run converged in     6 steps ***


  Electronic density on regular grids:       -407.9999943584        0.0000056416
  Core density on regular grids:              407.9999999748       -0.0000000252
  Total charge density on r-space grids:        0.0000056164
  Total charge density g-space grids:           0.0000056164

  Overlap energy of the core charge distribution:               0.00000006284500
  Self energy of the core charge distribution:              -2342.23014539452743
  Core Hamiltonian energy:                                    682.68583626772011
  Hartree energy:                                             971.60400596184661
  Exchange-correlation energy:                               -214.86917833066175

  Total energy:                                              -902.80948143277726

 ENERGY| Total FORCE_EVAL ( QS ) energy [hartree]           -902.809481560214408

 OPT| **************************************************************************
 OPT| Step number                                                             47
 OPT| Optimization method                                                  LBFGS
 OPT| Total energy [hartree]                                     -902.8094815602
 OPT| Effective energy change [hartree]                            -0.0005513375
 OPT| Decrease in energy                                                     YES
 OPT| Used time [s]                                                       43.779
 OPT|
 OPT| Maximum step size                                             0.0800833607
 OPT| Convergence limit for maximum step size                       0.0030000000
 OPT| Maximum step size is converged                                          NO
 OPT|
 OPT| RMS step size                                                 0.0111909189
 OPT| Convergence limit for RMS step size                           0.0015000000
 OPT| RMS step size is converged                                              NO
 OPT|
 OPT| Maximum gradient                                              0.0056256242
 OPT| Convergence limit for maximum gradient                        0.0010000000
 OPT| Maximum gradient is converged                                           NO
 OPT|
 OPT| RMS gradient                                                  0.0012456486
 OPT| Convergence limit for RMS gradient                            0.0003000000
 OPT| RMS gradient is converged                                               NO
 OPT| **************************************************************************
 OPT| Estimated peak process memory after this step [MiB]                   1798

 --------------------------
 OPTIMIZATION STEP:     48
 --------------------------

 Number of electrons:                                                        408
 Number of occupied orbitals:                                                204
 Number of molecular orbitals:                                               204

 Number of orbital functions:                                                314
 Number of independent orbital functions:                                    314

 Extrapolation method: ASPC


 SCF WAVEFUNCTION OPTIMIZATION

  ----------------------------------- OT ---------------------------------------
  Minimizer      : DIIS                : direct inversion
                                         in the iterative subspace
                                         using   7 DIIS vectors
                                         safer DIIS on
  Preconditioner : FULL_SINGLE_INVERSE : inversion of 
                                         H + eS - 2*(Sc)(c^T*H*c+const)(Sc)^T
  Precond_solver : DEFAULT
  stepsize       :    0.08000000                  energy_gap     :    0.08000000
  eps_taylor     :   0.10000E-15                  max_taylor     :             4
  ----------------------------------- OT ---------------------------------------

  Step     Update method      Time    Convergence         Total energy    Change
  ------------------------------------------------------------------------------
     1 OT DIIS     0.80E-01    4.8     0.00029616      -902.8095937641 -9.03E+02
     2 OT DIIS     0.80E-01    6.0     0.00015506      -902.8099120218 -3.18E-04
     3 OT DIIS     0.80E-01    6.0     0.00008767      -902.8100208763 -1.09E-04
     4 OT DIIS     0.80E-01    6.0     0.00003849      -902.8100528328 -3.20E-05
     5 OT DIIS     0.80E-01    6.0     0.00001730      -902.8100585588 -5.73E-06
     6 OT DIIS     0.80E-01    6.0     0.00000715      -902.8100597280 -1.17E-06

  *** SCF run converged in     6 steps ***


  Electronic density on regular grids:       -407.9999943469        0.0000056531
  Core density on regular grids:              407.9999999749       -0.0000000251
  Total charge density on r-space grids:        0.0000056280
  Total charge density g-space grids:           0.0000056280

  Overlap energy of the core charge distribution:               0.00000006430184
  Self energy of the core charge distribution:              -2342.23014539452743
  Core Hamiltonian energy:                                    682.69764079134018
  Hartree energy:                                             971.59591675135573
  Exchange-correlation energy:                               -214.87347194045461

  Total energy:                                              -902.81005972798425

 ENERGY| Total FORCE_EVAL ( QS ) energy [hartree]           -902.810059912132715

 OPT| **************************************************************************
 OPT| Step number                                                             48
 OPT| Optimization method                                                  LBFGS
 OPT| Total energy [hartree]                                     -902.8100599121
 OPT| Effective energy change [hartree]                            -0.0005783519
 OPT| Decrease in energy                                                     YES
 OPT| Used time [s]                                                       43.795
 OPT|
 OPT| Maximum step size                                             0.0392726332
 OPT| Convergence limit for maximum step size                       0.0030000000
 OPT| Maximum step size is converged                                          NO
 OPT|
 OPT| RMS step size                                                 0.0053625296
 OPT| Convergence limit for RMS step size                           0.0015000000
 OPT| RMS step size is converged                                              NO
 OPT|
 OPT| Maximum gradient                                              0.0048554870
 OPT| Convergence limit for maximum gradient                        0.0010000000
 OPT| Maximum gradient is converged                                           NO
 OPT|
 OPT| RMS gradient                                                  0.0008787339
 OPT| Convergence limit for RMS gradient                            0.0003000000
 OPT| RMS gradient is converged                                               NO
 OPT| **************************************************************************
 OPT| Estimated peak process memory after this step [MiB]                   1798

 --------------------------
 OPTIMIZATION STEP:     49
 --------------------------

 Number of electrons:                                                        408
 Number of occupied orbitals:                                                204
 Number of molecular orbitals:                                               204

 Number of orbital functions:                                                314
 Number of independent orbital functions:                                    314

 Extrapolation method: ASPC


 SCF WAVEFUNCTION OPTIMIZATION

  ----------------------------------- OT ---------------------------------------
  Minimizer      : DIIS                : direct inversion
                                         in the iterative subspace
                                         using   7 DIIS vectors
                                         safer DIIS on
  Preconditioner : FULL_SINGLE_INVERSE : inversion of 
                                         H + eS - 2*(Sc)(c^T*H*c+const)(Sc)^T
  Precond_solver : DEFAULT
  stepsize       :    0.08000000                  energy_gap     :    0.08000000
  eps_taylor     :   0.10000E-15                  max_taylor     :             4
  ----------------------------------- OT ---------------------------------------

  Step     Update method      Time    Convergence         Total energy    Change
  ------------------------------------------------------------------------------
     1 OT DIIS     0.80E-01    4.8     0.00049792      -902.8088954723 -9.03E+02
     2 OT DIIS     0.80E-01    6.0     0.00028710      -902.8098631408 -9.68E-04
     3 OT DIIS     0.80E-01    6.0     0.00013321      -902.8103186633 -4.56E-04
     4 OT DIIS     0.80E-01    6.0     0.00005211      -902.8103961188 -7.75E-05
     5 OT DIIS     0.80E-01    6.0     0.00002469      -902.8104058873 -9.77E-06
     6 OT DIIS     0.80E-01    6.0     0.00001068      -902.8104083522 -2.46E-06
     7 OT DIIS     0.80E-01    6.0     0.00000538      -902.8104088464 -4.94E-07

  *** SCF run converged in     7 steps ***


  Electronic density on regular grids:       -407.9999943442        0.0000056558
  Core density on regular grids:              407.9999999749       -0.0000000251
  Total charge density on r-space grids:        0.0000056307
  Total charge density g-space grids:           0.0000056307

  Overlap energy of the core charge distribution:               0.00000006281388
  Self energy of the core charge distribution:              -2342.23014539452743
  Core Hamiltonian energy:                                    682.68227653324254
  Hartree energy:                                             971.60458099914729
  Exchange-correlation energy:                               -214.86712104707641

  Total energy:                                              -902.81040884640015

 ENERGY| Total FORCE_EVAL ( QS ) energy [hartree]           -902.810408957036429

 OPT| **************************************************************************
 OPT| Step number                                                             49
 OPT| Optimization method                                                  LBFGS
 OPT| Total energy [hartree]                                     -902.8104089570
 OPT| Effective energy change [hartree]                            -0.0003490449
 OPT| Decrease in energy                                                     YES
 OPT| Used time [s]                                                       49.811
 OPT|
 OPT| Maximum step size                                             0.0973276478
 OPT| Convergence limit for maximum step size                       0.0030000000
 OPT| Maximum step size is converged                                          NO
 OPT|
 OPT| RMS step size                                                 0.0113363003
 OPT| Convergence limit for RMS step size                           0.0015000000
 OPT| RMS step size is converged                                              NO
 OPT|
 OPT| Maximum gradient                                              0.0061159442
 OPT| Convergence limit for maximum gradient                        0.0010000000
 OPT| Maximum gradient is converged                                           NO
 OPT|
 OPT| RMS gradient                                                  0.0013297173
 OPT| Convergence limit for RMS gradient                            0.0003000000
 OPT| RMS gradient is converged                                               NO
 OPT| **************************************************************************
 OPT| Estimated peak process memory after this step [MiB]                   1798

 --------------------------
 OPTIMIZATION STEP:     50
 --------------------------

 Number of electrons:                                                        408
 Number of occupied orbitals:                                                204
 Number of molecular orbitals:                                               204

 Number of orbital functions:                                                314
 Number of independent orbital functions:                                    314

 Extrapolation method: ASPC


 SCF WAVEFUNCTION OPTIMIZATION

  ----------------------------------- OT ---------------------------------------
  Minimizer      : DIIS                : direct inversion
                                         in the iterative subspace
                                         using   7 DIIS vectors
                                         safer DIIS on
  Preconditioner : FULL_SINGLE_INVERSE : inversion of 
                                         H + eS - 2*(Sc)(c^T*H*c+const)(Sc)^T
  Precond_solver : DEFAULT
  stepsize       :    0.08000000                  energy_gap     :    0.08000000
  eps_taylor     :   0.10000E-15                  max_taylor     :             4
  ----------------------------------- OT ---------------------------------------

  Step     Update method      Time    Convergence         Total energy    Change
  ------------------------------------------------------------------------------
     1 OT DIIS     0.80E-01    4.8     0.00072246      -902.8075990434 -9.03E+02
     2 OT DIIS     0.80E-01    6.0     0.00042070      -902.8096521529 -2.05E-03
     3 OT DIIS     0.80E-01    6.0     0.00018550      -902.8106615613 -1.01E-03
     4 OT DIIS     0.80E-01    6.0     0.00007326      -902.8108117424 -1.50E-04
     5 OT DIIS     0.80E-01    6.0     0.00003699      -902.8108294277 -1.77E-05
     6 OT DIIS     0.80E-01    6.0     0.00001675      -902.8108346632 -5.24E-06
     7 OT DIIS     0.80E-01    6.0     0.00000841      -902.8108357789 -1.12E-06

  *** SCF run converged in     7 steps ***


  Electronic density on regular grids:       -407.9999943567        0.0000056433
  Core density on regular grids:              407.9999999749       -0.0000000251
  Total charge density on r-space grids:        0.0000056182
  Total charge density g-space grids:           0.0000056182

  Overlap energy of the core charge distribution:               0.00000006341394
  Self energy of the core charge distribution:              -2342.23014539452743
  Core Hamiltonian energy:                                    682.69774795089018
  Hartree energy:                                             971.59249094817210
  Exchange-correlation energy:                               -214.87092934684424

  Total energy:                                              -902.81083577889547

 ENERGY| Total FORCE_EVAL ( QS ) energy [hartree]           -902.810836036324304

 OPT| **************************************************************************
 OPT| Step number                                                             50
 OPT| Optimization method                                                  LBFGS
 OPT| Total energy [hartree]                                     -902.8108360363
 OPT| Effective energy change [hartree]                            -0.0004270793
 OPT| Decrease in energy                                                     YES
 OPT| Used time [s]                                                       49.805
 OPT|
 OPT| Maximum step size                                             0.0169142025
 OPT| Convergence limit for maximum step size                       0.0030000000
 OPT| Maximum step size is converged                                          NO
 OPT|
 OPT| RMS step size                                                 0.0026520971
 OPT| Convergence limit for RMS step size                           0.0015000000
 OPT| RMS step size is converged                                              NO
 OPT|
 OPT| Maximum gradient                                              0.0045912319
 OPT| Convergence limit for maximum gradient                        0.0010000000
 OPT| Maximum gradient is converged                                           NO
 OPT|
 OPT| RMS gradient                                                  0.0008193148
 OPT| Convergence limit for RMS gradient                            0.0003000000
 OPT| RMS gradient is converged                                               NO
 OPT| **************************************************************************
 OPT| Estimated peak process memory after this step [MiB]                   1798

 --------------------------
 OPTIMIZATION STEP:     51
 --------------------------

 Number of electrons:                                                        408
 Number of occupied orbitals:                                                204
 Number of molecular orbitals:                                               204

 Number of orbital functions:                                                314
 Number of independent orbital functions:                                    314

 Extrapolation method: ASPC


 SCF WAVEFUNCTION OPTIMIZATION

  ----------------------------------- OT ---------------------------------------
  Minimizer      : DIIS                : direct inversion
                                         in the iterative subspace
                                         using   7 DIIS vectors
                                         safer DIIS on
  Preconditioner : FULL_SINGLE_INVERSE : inversion of 
                                         H + eS - 2*(Sc)(c^T*H*c+const)(Sc)^T
  Precond_solver : DEFAULT
  stepsize       :    0.08000000                  energy_gap     :    0.08000000
  eps_taylor     :   0.10000E-15                  max_taylor     :             4
  ----------------------------------- OT ---------------------------------------

  Step     Update method      Time    Convergence         Total energy    Change
  ------------------------------------------------------------------------------
     1 OT DIIS     0.80E-01    4.8     0.00068796      -902.8083060979 -9.03E+02
     2 OT DIIS     0.80E-01    6.0     0.00040374      -902.8101923524 -1.89E-03
     3 OT DIIS     0.80E-01    6.0     0.00015497      -902.8111655002 -9.73E-04
     4 OT DIIS     0.80E-01    6.0     0.00006825      -902.8112584883 -9.30E-05
     5 OT DIIS     0.80E-01    6.0     0.00003436      -902.8112727722 -1.43E-05
     6 OT DIIS     0.80E-01    6.0     0.00001571      -902.8112772202 -4.45E-06
     7 OT DIIS     0.80E-01    6.0     0.00000706      -902.8112782207 -1.00E-06

  *** SCF run converged in     7 steps ***


  Electronic density on regular grids:       -407.9999943869        0.0000056131
  Core density on regular grids:              407.9999999748       -0.0000000252
  Total charge density on r-space grids:        0.0000055879
  Total charge density g-space grids:           0.0000055879

  Overlap energy of the core charge distribution:               0.00000006383145
  Self energy of the core charge distribution:              -2342.23014539452743
  Core Hamiltonian energy:                                    682.69941993885914
  Hartree energy:                                             971.59025284903032
  Exchange-correlation energy:                               -214.87080567792626

  Total energy:                                              -902.81127822073267

 ENERGY| Total FORCE_EVAL ( QS ) energy [hartree]           -902.811278409035367

 OPT| **************************************************************************
 OPT| Step number                                                             51
 OPT| Optimization method                                                  LBFGS
 OPT| Total energy [hartree]                                     -902.8112784090
 OPT| Effective energy change [hartree]                            -0.0004423727
 OPT| Decrease in energy                                                     YES
 OPT| Used time [s]                                                       49.773
 OPT|
 OPT| Maximum step size                                             0.0739551304
 OPT| Convergence limit for maximum step size                       0.0030000000
 OPT| Maximum step size is converged                                          NO
 OPT|
 OPT| RMS step size                                                 0.0074566405
 OPT| Convergence limit for RMS step size                           0.0015000000
 OPT| RMS step size is converged                                              NO
 OPT|
 OPT| Maximum gradient                                              0.0043911221
 OPT| Convergence limit for maximum gradient                        0.0010000000
 OPT| Maximum gradient is converged                                           NO
 OPT|
 OPT| RMS gradient                                                  0.0008085484
 OPT| Convergence limit for RMS gradient                            0.0003000000
 OPT| RMS gradient is converged                                               NO
 OPT| **************************************************************************
 OPT| Estimated peak process memory after this step [MiB]                   1798

 --------------------------
 OPTIMIZATION STEP:     52
 --------------------------

 Number of electrons:                                                        408
 Number of occupied orbitals:                                                204
 Number of molecular orbitals:                                               204

 Number of orbital functions:                                                314
 Number of independent orbital functions:                                    314

 Extrapolation method: ASPC


 SCF WAVEFUNCTION OPTIMIZATION

  ----------------------------------- OT ---------------------------------------
  Minimizer      : DIIS                : direct inversion
                                         in the iterative subspace
                                         using   7 DIIS vectors
                                         safer DIIS on
  Preconditioner : FULL_SINGLE_INVERSE : inversion of 
                                         H + eS - 2*(Sc)(c^T*H*c+const)(Sc)^T
  Precond_solver : DEFAULT
  stepsize       :    0.08000000                  energy_gap     :    0.08000000
  eps_taylor     :   0.10000E-15                  max_taylor     :             4
  ----------------------------------- OT ---------------------------------------

  Step     Update method      Time    Convergence         Total energy    Change
  ------------------------------------------------------------------------------
     1 OT DIIS     0.80E-01    4.8     0.00050139      -902.8101077092 -9.03E+02
     2 OT DIIS     0.80E-01    6.0     0.00029202      -902.8110977485 -9.90E-04
     3 OT DIIS     0.80E-01    6.0     0.00012622      -902.8115849764 -4.87E-04
     4 OT DIIS     0.80E-01    6.0     0.00005098      -902.8116529956 -6.80E-05
     5 OT DIIS     0.80E-01    6.0     0.00002632      -902.8116605254 -7.53E-06
     6 OT DIIS     0.80E-01    6.0     0.00001149      -902.8116629568 -2.43E-06
     7 OT DIIS     0.80E-01    6.0     0.00000526      -902.8116635279 -5.71E-07

  *** SCF run converged in     7 steps ***


  Electronic density on regular grids:       -407.9999944355        0.0000055645
  Core density on regular grids:              407.9999999747       -0.0000000253
  Total charge density on r-space grids:        0.0000055392
  Total charge density g-space grids:           0.0000055392

  Overlap energy of the core charge distribution:               0.00000006383329
  Self energy of the core charge distribution:              -2342.23014539452743
  Core Hamiltonian energy:                                    682.70491996637088
  Hartree energy:                                             971.58482893333712
  Exchange-correlation energy:                               -214.87126709693672

  Total energy:                                              -902.81166352792275

 ENERGY| Total FORCE_EVAL ( QS ) energy [hartree]           -902.811663637676020

 OPT| **************************************************************************
 OPT| Step number                                                             52
 OPT| Optimization method                                                  LBFGS
 OPT| Total energy [hartree]                                     -902.8116636377
 OPT| Effective energy change [hartree]                            -0.0003852286
 OPT| Decrease in energy                                                     YES
 OPT| Used time [s]                                                       49.791
 OPT|
 OPT| Maximum step size                                             0.0537471080
 OPT| Convergence limit for maximum step size                       0.0030000000
 OPT| Maximum step size is converged                                          NO
 OPT|
 OPT| RMS step size                                                 0.0055808278
 OPT| Convergence limit for RMS step size                           0.0015000000
 OPT| RMS step size is converged                                              NO
 OPT|
 OPT| Maximum gradient                                              0.0079353932
 OPT| Convergence limit for maximum gradient                        0.0010000000
 OPT| Maximum gradient is converged                                           NO
 OPT|
 OPT| RMS gradient                                                  0.0009489713
 OPT| Convergence limit for RMS gradient                            0.0003000000
 OPT| RMS gradient is converged                                               NO
 OPT| **************************************************************************
 OPT| Estimated peak process memory after this step [MiB]                   1798

 --------------------------
 OPTIMIZATION STEP:     53
 --------------------------

 Number of electrons:                                                        408
 Number of occupied orbitals:                                                204
 Number of molecular orbitals:                                               204

 Number of orbital functions:                                                314
 Number of independent orbital functions:                                    314

 Extrapolation method: ASPC


 SCF WAVEFUNCTION OPTIMIZATION

  ----------------------------------- OT ---------------------------------------
  Minimizer      : DIIS                : direct inversion
                                         in the iterative subspace
                                         using   7 DIIS vectors
                                         safer DIIS on
  Preconditioner : FULL_SINGLE_INVERSE : inversion of 
                                         H + eS - 2*(Sc)(c^T*H*c+const)(Sc)^T
  Precond_solver : DEFAULT
  stepsize       :    0.08000000                  energy_gap     :    0.08000000
  eps_taylor     :   0.10000E-15                  max_taylor     :             4
  ----------------------------------- OT ---------------------------------------

  Step     Update method      Time    Convergence         Total energy    Change
  ------------------------------------------------------------------------------
     1 OT DIIS     0.80E-01    4.8     0.00049610      -902.8107176226 -9.03E+02
     2 OT DIIS     0.80E-01    6.0     0.00028428      -902.8116813603 -9.64E-04
     3 OT DIIS     0.80E-01    6.0     0.00011949      -902.8121351589 -4.54E-04
     4 OT DIIS     0.80E-01    6.0     0.00004818      -902.8121952867 -6.01E-05
     5 OT DIIS     0.80E-01    6.0     0.00002614      -902.8122023102 -7.02E-06
     6 OT DIIS     0.80E-01    6.0     0.00001132      -902.8122046383 -2.33E-06
     7 OT DIIS     0.80E-01    6.0     0.00000533      -902.8122051883 -5.50E-07

  *** SCF run converged in     7 steps ***


  Electronic density on regular grids:       -407.9999945197        0.0000054803
  Core density on regular grids:              407.9999999746       -0.0000000254
  Total charge density on r-space grids:        0.0000054549
  Total charge density g-space grids:           0.0000054549

  Overlap energy of the core charge distribution:               0.00000006256372
  Self energy of the core charge distribution:              -2342.23014539452743
  Core Hamiltonian energy:                                    682.68661120851527
  Hartree energy:                                             971.59468224751606
  Exchange-correlation energy:                               -214.86335331240932

  Total energy:                                              -902.81220518834164

 ENERGY| Total FORCE_EVAL ( QS ) energy [hartree]           -902.812205294155547

 OPT| **************************************************************************
 OPT| Step number                                                             53
 OPT| Optimization method                                                  LBFGS
 OPT| Total energy [hartree]                                     -902.8122052942
 OPT| Effective energy change [hartree]                            -0.0005416565
 OPT| Decrease in energy                                                     YES
 OPT| Used time [s]                                                       49.786
 OPT|
 OPT| Maximum step size                                             0.1315091419
 OPT| Convergence limit for maximum step size                       0.0030000000
 OPT| Maximum step size is converged                                          NO
 OPT|
 OPT| RMS step size                                                 0.0119899815
 OPT| Convergence limit for RMS step size                           0.0015000000
 OPT| RMS step size is converged                                              NO
 OPT|
 OPT| Maximum gradient                                              0.0048125844
 OPT| Convergence limit for maximum gradient                        0.0010000000
 OPT| Maximum gradient is converged                                           NO
 OPT|
 OPT| RMS gradient                                                  0.0011400443
 OPT| Convergence limit for RMS gradient                            0.0003000000
 OPT| RMS gradient is converged                                               NO
 OPT| **************************************************************************
 OPT| Estimated peak process memory after this step [MiB]                   1798

 --------------------------
 OPTIMIZATION STEP:     54
 --------------------------

 Number of electrons:                                                        408
 Number of occupied orbitals:                                                204
 Number of molecular orbitals:                                               204

 Number of orbital functions:                                                314
 Number of independent orbital functions:                                    314

 Extrapolation method: ASPC


 SCF WAVEFUNCTION OPTIMIZATION

  ----------------------------------- OT ---------------------------------------
  Minimizer      : DIIS                : direct inversion
                                         in the iterative subspace
                                         using   7 DIIS vectors
                                         safer DIIS on
  Preconditioner : FULL_SINGLE_INVERSE : inversion of 
                                         H + eS - 2*(Sc)(c^T*H*c+const)(Sc)^T
  Precond_solver : DEFAULT
  stepsize       :    0.08000000                  energy_gap     :    0.08000000
  eps_taylor     :   0.10000E-15                  max_taylor     :             4
  ----------------------------------- OT ---------------------------------------

  Step     Update method      Time    Convergence         Total energy    Change
  ------------------------------------------------------------------------------
     1 OT DIIS     0.80E-01    4.8     0.00043573      -902.8117118882 -9.03E+02
     2 OT DIIS     0.80E-01    6.0     0.00024352      -902.8124332693 -7.21E-04
     3 OT DIIS     0.80E-01    6.0     0.00011750      -902.8127377130 -3.04E-04
     4 OT DIIS     0.80E-01    6.0     0.00004042      -902.8128060511 -6.83E-05
     5 OT DIIS     0.80E-01    6.0     0.00002293      -902.8128118333 -5.78E-06
     6 OT DIIS     0.80E-01    6.0     0.00000993      -902.8128134094 -1.58E-06

  *** SCF run converged in     6 steps ***


  Electronic density on regular grids:       -407.9999946028        0.0000053972
  Core density on regular grids:              407.9999999747       -0.0000000253
  Total charge density on r-space grids:        0.0000053719
  Total charge density g-space grids:           0.0000053719

  Overlap energy of the core charge distribution:               0.00000006341133
  Self energy of the core charge distribution:              -2342.23014539452743
  Core Hamiltonian energy:                                    682.68644005029887
  Hartree energy:                                             971.59405191989219
  Exchange-correlation energy:                               -214.86316004847922

  Total energy:                                              -902.81281340940427

 ENERGY| Total FORCE_EVAL ( QS ) energy [hartree]           -902.812813797765898

 OPT| **************************************************************************
 OPT| Step number                                                             54
 OPT| Optimization method                                                  LBFGS
 OPT| Total energy [hartree]                                     -902.8128137978
 OPT| Effective energy change [hartree]                            -0.0006085036
 OPT| Decrease in energy                                                     YES
 OPT| Used time [s]                                                       43.789
 OPT|
 OPT| Maximum step size                                             0.1157551900
 OPT| Convergence limit for maximum step size                       0.0030000000
 OPT| Maximum step size is converged                                          NO
 OPT|
 OPT| RMS step size                                                 0.0107434826
 OPT| Convergence limit for RMS step size                           0.0015000000
 OPT| RMS step size is converged                                              NO
 OPT|
 OPT| Maximum gradient                                              0.0062641959
 OPT| Convergence limit for maximum gradient                        0.0010000000
 OPT| Maximum gradient is converged                                           NO
 OPT|
 OPT| RMS gradient                                                  0.0011253836
 OPT| Convergence limit for RMS gradient                            0.0003000000
 OPT| RMS gradient is converged                                               NO
 OPT| **************************************************************************
 OPT| Estimated peak process memory after this step [MiB]                   1798

 --------------------------
 OPTIMIZATION STEP:     55
 --------------------------

 Number of electrons:                                                        408
 Number of occupied orbitals:                                                204
 Number of molecular orbitals:                                               204

 Number of orbital functions:                                                314
 Number of independent orbital functions:                                    314

 Extrapolation method: ASPC


 SCF WAVEFUNCTION OPTIMIZATION

  ----------------------------------- OT ---------------------------------------
  Minimizer      : DIIS                : direct inversion
                                         in the iterative subspace
                                         using   7 DIIS vectors
                                         safer DIIS on
  Preconditioner : FULL_SINGLE_INVERSE : inversion of 
                                         H + eS - 2*(Sc)(c^T*H*c+const)(Sc)^T
  Precond_solver : DEFAULT
  stepsize       :    0.08000000                  energy_gap     :    0.08000000
  eps_taylor     :   0.10000E-15                  max_taylor     :             4
  ----------------------------------- OT ---------------------------------------

  Step     Update method      Time    Convergence         Total energy    Change
  ------------------------------------------------------------------------------
     1 OT DIIS     0.80E-01    4.8     0.00024032      -902.8131721246 -9.03E+02
     2 OT DIIS     0.80E-01    6.0     0.00012358      -902.8133741929 -2.02E-04
     3 OT DIIS     0.80E-01    6.0     0.00007234      -902.8134357486 -6.16E-05
     4 OT DIIS     0.80E-01    6.0     0.00002933      -902.8134579541 -2.22E-05
     5 OT DIIS     0.80E-01    6.0     0.00001426      -902.8134613120 -3.36E-06
     6 OT DIIS     0.80E-01    6.0     0.00000571      -902.8134621008 -7.89E-07

  *** SCF run converged in     6 steps ***


  Electronic density on regular grids:       -407.9999945466        0.0000054534
  Core density on regular grids:              407.9999999749       -0.0000000251
  Total charge density on r-space grids:        0.0000054282
  Total charge density g-space grids:           0.0000054282

  Overlap energy of the core charge distribution:               0.00000006190461
  Self energy of the core charge distribution:              -2342.23014539452743
  Core Hamiltonian energy:                                    682.68369900193227
  Hartree energy:                                             971.59430029929536
  Exchange-correlation energy:                               -214.86131606939432

  Total energy:                                              -902.81346210078925

 ENERGY| Total FORCE_EVAL ( QS ) energy [hartree]           -902.813462211180649

 OPT| **************************************************************************
 OPT| Step number                                                             55
 OPT| Optimization method                                                  LBFGS
 OPT| Total energy [hartree]                                     -902.8134622112
 OPT| Effective energy change [hartree]                            -0.0006484134
 OPT| Decrease in energy                                                     YES
 OPT| Used time [s]                                                       43.783
 OPT|
 OPT| Maximum step size                                             0.0636190957
 OPT| Convergence limit for maximum step size                       0.0030000000
 OPT| Maximum step size is converged                                          NO
 OPT|
 OPT| RMS step size                                                 0.0067515849
 OPT| Convergence limit for RMS step size                           0.0015000000
 OPT| RMS step size is converged                                              NO
 OPT|
 OPT| Maximum gradient                                              0.0053519789
 OPT| Convergence limit for maximum gradient                        0.0010000000
 OPT| Maximum gradient is converged                                           NO
 OPT|
 OPT| RMS gradient                                                  0.0008656287
 OPT| Convergence limit for RMS gradient                            0.0003000000
 OPT| RMS gradient is converged                                               NO
 OPT| **************************************************************************
 OPT| Estimated peak process memory after this step [MiB]                   1798

 --------------------------
 OPTIMIZATION STEP:     56
 --------------------------

 Number of electrons:                                                        408
 Number of occupied orbitals:                                                204
 Number of molecular orbitals:                                               204

 Number of orbital functions:                                                314
 Number of independent orbital functions:                                    314

 Extrapolation method: ASPC


 SCF WAVEFUNCTION OPTIMIZATION

  ----------------------------------- OT ---------------------------------------
  Minimizer      : DIIS                : direct inversion
                                         in the iterative subspace
                                         using   7 DIIS vectors
                                         safer DIIS on
  Preconditioner : FULL_SINGLE_INVERSE : inversion of 
                                         H + eS - 2*(Sc)(c^T*H*c+const)(Sc)^T
  Precond_solver : DEFAULT
  stepsize       :    0.08000000                  energy_gap     :    0.08000000
  eps_taylor     :   0.10000E-15                  max_taylor     :             4
  ----------------------------------- OT ---------------------------------------

  Step     Update method      Time    Convergence         Total energy    Change
  ------------------------------------------------------------------------------
     1 OT DIIS     0.80E-01    4.8     0.00025502      -902.8136681269 -9.03E+02
     2 OT DIIS     0.80E-01    6.0     0.00013016      -902.8138927814 -2.25E-04
     3 OT DIIS     0.80E-01    6.0     0.00007927      -902.8139570268 -6.42E-05
     4 OT DIIS     0.80E-01    6.0     0.00003120      -902.8139808667 -2.38E-05
     5 OT DIIS     0.80E-01    6.0     0.00001394      -902.8139845661 -3.70E-06
     6 OT DIIS     0.80E-01    6.0     0.00000646      -902.8139853861 -8.20E-07

  *** SCF run converged in     6 steps ***


  Electronic density on regular grids:       -407.9999944689        0.0000055311
  Core density on regular grids:              407.9999999749       -0.0000000251
  Total charge density on r-space grids:        0.0000055060
  Total charge density g-space grids:           0.0000055060

  Overlap energy of the core charge distribution:               0.00000006228134
  Self energy of the core charge distribution:              -2342.23014539452743
  Core Hamiltonian energy:                                    682.69626021207227
  Hartree energy:                                             971.58353710079268
  Exchange-correlation energy:                               -214.86363736673007

  Total energy:                                              -902.81398538611120

 ENERGY| Total FORCE_EVAL ( QS ) energy [hartree]           -902.813985532609649

 OPT| **************************************************************************
 OPT| Step number                                                             56
 OPT| Optimization method                                                  LBFGS
 OPT| Total energy [hartree]                                     -902.8139855326
 OPT| Effective energy change [hartree]                            -0.0005233214
 OPT| Decrease in energy                                                     YES
 OPT| Used time [s]                                                       43.778
 OPT|
 OPT| Maximum step size                                             0.0660336089
 OPT| Convergence limit for maximum step size                       0.0030000000
 OPT| Maximum step size is converged                                          NO
 OPT|
 OPT| RMS step size                                                 0.0066666358
 OPT| Convergence limit for RMS step size                           0.0015000000
 OPT| RMS step size is converged                                              NO
 OPT|
 OPT| Maximum gradient                                              0.0041134352
 OPT| Convergence limit for maximum gradient                        0.0010000000
 OPT| Maximum gradient is converged                                           NO
 OPT|
 OPT| RMS gradient                                                  0.0009375503
 OPT| Convergence limit for RMS gradient                            0.0003000000
 OPT| RMS gradient is converged                                               NO
 OPT| **************************************************************************
 OPT| Estimated peak process memory after this step [MiB]                   1798

 --------------------------
 OPTIMIZATION STEP:     57
 --------------------------

 Number of electrons:                                                        408
 Number of occupied orbitals:                                                204
 Number of molecular orbitals:                                               204

 Number of orbital functions:                                                314
 Number of independent orbital functions:                                    314

 Extrapolation method: ASPC


 SCF WAVEFUNCTION OPTIMIZATION

  ----------------------------------- OT ---------------------------------------
  Minimizer      : DIIS                : direct inversion
                                         in the iterative subspace
                                         using   7 DIIS vectors
                                         safer DIIS on
  Preconditioner : FULL_SINGLE_INVERSE : inversion of 
                                         H + eS - 2*(Sc)(c^T*H*c+const)(Sc)^T
  Precond_solver : DEFAULT
  stepsize       :    0.08000000                  energy_gap     :    0.08000000
  eps_taylor     :   0.10000E-15                  max_taylor     :             4
  ----------------------------------- OT ---------------------------------------

  Step     Update method      Time    Convergence         Total energy    Change
  ------------------------------------------------------------------------------
     1 OT DIIS     0.80E-01    4.8     0.00020292      -902.8142813739 -9.03E+02
     2 OT DIIS     0.80E-01    6.0     0.00010560      -902.8144188966 -1.38E-04
     3 OT DIIS     0.80E-01    6.0     0.00006707      -902.8144568321 -3.79E-05
     4 OT DIIS     0.80E-01    6.0     0.00002697      -902.8144746429 -1.78E-05
     5 OT DIIS     0.80E-01    6.0     0.00001282      -902.8144776754 -3.03E-06
     6 OT DIIS     0.80E-01    6.0     0.00000568      -902.8144783490 -6.74E-07

  *** SCF run converged in     6 steps ***


  Electronic density on regular grids:       -407.9999944477        0.0000055523
  Core density on regular grids:              407.9999999749       -0.0000000251
  Total charge density on r-space grids:        0.0000055272
  Total charge density g-space grids:           0.0000055272

  Overlap energy of the core charge distribution:               0.00000006208124
  Self energy of the core charge distribution:              -2342.23014539452743
  Core Hamiltonian energy:                                    682.72209707895695
  Hartree energy:                                             971.56333562839700
  Exchange-correlation energy:                               -214.86976572388966

  Total energy:                                              -902.81447834898199

 ENERGY| Total FORCE_EVAL ( QS ) energy [hartree]           -902.814478466995070

 OPT| **************************************************************************
 OPT| Step number                                                             57
 OPT| Optimization method                                                  LBFGS
 OPT| Total energy [hartree]                                     -902.8144784670
 OPT| Effective energy change [hartree]                            -0.0004929344
 OPT| Decrease in energy                                                     YES
 OPT| Used time [s]                                                       43.783
 OPT|
 OPT| Maximum step size                                             0.0930705471
 OPT| Convergence limit for maximum step size                       0.0030000000
 OPT| Maximum step size is converged                                          NO
 OPT|
 OPT| RMS step size                                                 0.0091969619
 OPT| Convergence limit for RMS step size                           0.0015000000
 OPT| RMS step size is converged                                              NO
 OPT|
 OPT| Maximum gradient                                              0.0043192943
 OPT| Convergence limit for maximum gradient                        0.0010000000
 OPT| Maximum gradient is converged                                           NO
 OPT|
 OPT| RMS gradient                                                  0.0008940834
 OPT| Convergence limit for RMS gradient                            0.0003000000
 OPT| RMS gradient is converged                                               NO
 OPT| **************************************************************************
 OPT| Estimated peak process memory after this step [MiB]                   1798

 --------------------------
 OPTIMIZATION STEP:     58
 --------------------------

 Number of electrons:                                                        408
 Number of occupied orbitals:                                                204
 Number of molecular orbitals:                                               204

 Number of orbital functions:                                                314
 Number of independent orbital functions:                                    314

 Extrapolation method: ASPC


 SCF WAVEFUNCTION OPTIMIZATION

  ----------------------------------- OT ---------------------------------------
  Minimizer      : DIIS                : direct inversion
                                         in the iterative subspace
                                         using   7 DIIS vectors
                                         safer DIIS on
  Preconditioner : FULL_SINGLE_INVERSE : inversion of 
                                         H + eS - 2*(Sc)(c^T*H*c+const)(Sc)^T
  Precond_solver : DEFAULT
  stepsize       :    0.08000000                  energy_gap     :    0.08000000
  eps_taylor     :   0.10000E-15                  max_taylor     :             4
  ----------------------------------- OT ---------------------------------------

  Step     Update method      Time    Convergence         Total energy    Change
  ------------------------------------------------------------------------------
     1 OT DIIS     0.80E-01    4.8     0.00032668      -902.8143707083 -9.03E+02
     2 OT DIIS     0.80E-01    6.0     0.00017743      -902.8147600704 -3.89E-04
     3 OT DIIS     0.80E-01    6.0     0.00010369      -902.8148958403 -1.36E-04
     4 OT DIIS     0.80E-01    6.0     0.00003619      -902.8149394625 -4.36E-05
     5 OT DIIS     0.80E-01    6.0     0.00001776      -902.8149444195 -4.96E-06
     6 OT DIIS     0.80E-01    6.0     0.00000811      -902.8149456715 -1.25E-06

  *** SCF run converged in     6 steps ***


  Electronic density on regular grids:       -407.9999944368        0.0000055632
  Core density on regular grids:              407.9999999749       -0.0000000251
  Total charge density on r-space grids:        0.0000055381
  Total charge density g-space grids:           0.0000055381

  Overlap energy of the core charge distribution:               0.00000006191281
  Self energy of the core charge distribution:              -2342.23014539452743
  Core Hamiltonian energy:                                    682.75638612266152
  Hartree energy:                                             971.53684812375195
  Exchange-correlation energy:                               -214.87803458531948

  Total energy:                                              -902.81494567152049

 ENERGY| Total FORCE_EVAL ( QS ) energy [hartree]           -902.814945961866670

 OPT| **************************************************************************
 OPT| Step number                                                             58
 OPT| Optimization method                                                  LBFGS
 OPT| Total energy [hartree]                                     -902.8149459619
 OPT| Effective energy change [hartree]                            -0.0004674949
 OPT| Decrease in energy                                                     YES
 OPT| Used time [s]                                                       43.801
 OPT|
 OPT| Maximum step size                                             0.0514464347
 OPT| Convergence limit for maximum step size                       0.0030000000
 OPT| Maximum step size is converged                                          NO
 OPT|
 OPT| RMS step size                                                 0.0061960372
 OPT| Convergence limit for RMS step size                           0.0015000000
 OPT| RMS step size is converged                                              NO
 OPT|
 OPT| Maximum gradient                                              0.0039465467
 OPT| Convergence limit for maximum gradient                        0.0010000000
 OPT| Maximum gradient is converged                                           NO
 OPT|
 OPT| RMS gradient                                                  0.0008093593
 OPT| Convergence limit for RMS gradient                            0.0003000000
 OPT| RMS gradient is converged                                               NO
 OPT| **************************************************************************
 OPT| Estimated peak process memory after this step [MiB]                   1798

 --------------------------
 OPTIMIZATION STEP:     59
 --------------------------

 Number of electrons:                                                        408
 Number of occupied orbitals:                                                204
 Number of molecular orbitals:                                               204

 Number of orbital functions:                                                314
 Number of independent orbital functions:                                    314

 Extrapolation method: ASPC


 SCF WAVEFUNCTION OPTIMIZATION

  ----------------------------------- OT ---------------------------------------
  Minimizer      : DIIS                : direct inversion
                                         in the iterative subspace
                                         using   7 DIIS vectors
                                         safer DIIS on
  Preconditioner : FULL_SINGLE_INVERSE : inversion of 
                                         H + eS - 2*(Sc)(c^T*H*c+const)(Sc)^T
  Precond_solver : DEFAULT
  stepsize       :    0.08000000                  energy_gap     :    0.08000000
  eps_taylor     :   0.10000E-15                  max_taylor     :             4
  ----------------------------------- OT ---------------------------------------

  Step     Update method      Time    Convergence         Total energy    Change
  ------------------------------------------------------------------------------
     1 OT DIIS     0.80E-01    4.8     0.00044619      -902.8142920819 -9.03E+02
     2 OT DIIS     0.80E-01    6.0     0.00024500      -902.8150421191 -7.50E-04
     3 OT DIIS     0.80E-01    6.0     0.00012415      -902.8153342152 -2.92E-04
     4 OT DIIS     0.80E-01    6.0     0.00004299      -902.8153974806 -6.33E-05
     5 OT DIIS     0.80E-01    6.0     0.00002190      -902.8154036627 -6.18E-06
     6 OT DIIS     0.80E-01    6.0     0.00000991      -902.8154055198 -1.86E-06

  *** SCF run converged in     6 steps ***


  Electronic density on regular grids:       -407.9999944831        0.0000055169
  Core density on regular grids:              407.9999999749       -0.0000000251
  Total charge density on r-space grids:        0.0000054919
  Total charge density g-space grids:           0.0000054919

  Overlap energy of the core charge distribution:               0.00000006244703
  Self energy of the core charge distribution:              -2342.23014539452743
  Core Hamiltonian energy:                                    682.79560723171062
  Hartree energy:                                             971.50617998448729
  Exchange-correlation energy:                               -214.88704740388164

  Total energy:                                              -902.81540551976434

 ENERGY| Total FORCE_EVAL ( QS ) energy [hartree]           -902.815405946792907

 OPT| **************************************************************************
 OPT| Step number                                                             59
 OPT| Optimization method                                                  LBFGS
 OPT| Total energy [hartree]                                     -902.8154059468
 OPT| Effective energy change [hartree]                            -0.0004599849
 OPT| Decrease in energy                                                     YES
 OPT| Used time [s]                                                       43.781
 OPT|
 OPT| Maximum step size                                             0.1140486140
 OPT| Convergence limit for maximum step size                       0.0030000000
 OPT| Maximum step size is converged                                          NO
 OPT|
 OPT| RMS step size                                                 0.0113178927
 OPT| Convergence limit for RMS step size                           0.0015000000
 OPT| RMS step size is converged                                              NO
 OPT|
 OPT| Maximum gradient                                              0.0073305478
 OPT| Convergence limit for maximum gradient                        0.0010000000
 OPT| Maximum gradient is converged                                           NO
 OPT|
 OPT| RMS gradient                                                  0.0011123611
 OPT| Convergence limit for RMS gradient                            0.0003000000
 OPT| RMS gradient is converged                                               NO
 OPT| **************************************************************************
 OPT| Estimated peak process memory after this step [MiB]                   1798

 --------------------------
 OPTIMIZATION STEP:     60
 --------------------------

 Number of electrons:                                                        408
 Number of occupied orbitals:                                                204
 Number of molecular orbitals:                                               204

 Number of orbital functions:                                                314
 Number of independent orbital functions:                                    314

 Extrapolation method: ASPC


 SCF WAVEFUNCTION OPTIMIZATION

  ----------------------------------- OT ---------------------------------------
  Minimizer      : DIIS                : direct inversion
                                         in the iterative subspace
                                         using   7 DIIS vectors
                                         safer DIIS on
  Preconditioner : FULL_SINGLE_INVERSE : inversion of 
                                         H + eS - 2*(Sc)(c^T*H*c+const)(Sc)^T
  Precond_solver : DEFAULT
  stepsize       :    0.08000000                  energy_gap     :    0.08000000
  eps_taylor     :   0.10000E-15                  max_taylor     :             4
  ----------------------------------- OT ---------------------------------------

  Step     Update method      Time    Convergence         Total energy    Change
  ------------------------------------------------------------------------------
     1 OT DIIS     0.80E-01    4.8     0.00041088      -902.8149657777 -9.03E+02
     2 OT DIIS     0.80E-01    6.0     0.00022395      -902.8156005277 -6.35E-04
     3 OT DIIS     0.80E-01    6.0     0.00011026      -902.8158468146 -2.46E-04
     4 OT DIIS     0.80E-01    6.0     0.00003929      -902.8158977784 -5.10E-05
     5 OT DIIS     0.80E-01    6.0     0.00001795      -902.8159025100 -4.73E-06
     6 OT DIIS     0.80E-01    6.0     0.00000841      -902.8159037431 -1.23E-06

  *** SCF run converged in     6 steps ***


  Electronic density on regular grids:       -407.9999945149        0.0000054851
  Core density on regular grids:              407.9999999749       -0.0000000251
  Total charge density on r-space grids:        0.0000054600
  Total charge density g-space grids:           0.0000054600

  Overlap energy of the core charge distribution:               0.00000006260851
  Self energy of the core charge distribution:              -2342.23014539452743
  Core Hamiltonian energy:                                    682.83126785943273
  Hartree energy:                                             971.47990249948350
  Exchange-correlation energy:                               -214.89692877010199

  Total energy:                                              -902.81590374310451

 ENERGY| Total FORCE_EVAL ( QS ) energy [hartree]           -902.815904015862202

 OPT| **************************************************************************
 OPT| Step number                                                             60
 OPT| Optimization method                                                  LBFGS
 OPT| Total energy [hartree]                                     -902.8159040159
 OPT| Effective energy change [hartree]                            -0.0004980691
 OPT| Decrease in energy                                                     YES
 OPT| Used time [s]                                                       43.782
 OPT|
 OPT| Maximum step size                                             0.0904233906
 OPT| Convergence limit for maximum step size                       0.0030000000
 OPT| Maximum step size is converged                                          NO
 OPT|
 OPT| RMS step size                                                 0.0096258068
 OPT| Convergence limit for RMS step size                           0.0015000000
 OPT| RMS step size is converged                                              NO
 OPT|
 OPT| Maximum gradient                                              0.0095538773
 OPT| Convergence limit for maximum gradient                        0.0010000000
 OPT| Maximum gradient is converged                                           NO
 OPT|
 OPT| RMS gradient                                                  0.0010930737
 OPT| Convergence limit for RMS gradient                            0.0003000000
 OPT| RMS gradient is converged                                               NO
 OPT| **************************************************************************
 OPT| Estimated peak process memory after this step [MiB]                   1798

 --------------------------
 OPTIMIZATION STEP:     61
 --------------------------

 Number of electrons:                                                        408
 Number of occupied orbitals:                                                204
 Number of molecular orbitals:                                               204

 Number of orbital functions:                                                314
 Number of independent orbital functions:                                    314

 Extrapolation method: ASPC


 SCF WAVEFUNCTION OPTIMIZATION

  ----------------------------------- OT ---------------------------------------
  Minimizer      : DIIS                : direct inversion
                                         in the iterative subspace
                                         using   7 DIIS vectors
                                         safer DIIS on
  Preconditioner : FULL_SINGLE_INVERSE : inversion of 
                                         H + eS - 2*(Sc)(c^T*H*c+const)(Sc)^T
  Precond_solver : DEFAULT
  stepsize       :    0.08000000                  energy_gap     :    0.08000000
  eps_taylor     :   0.10000E-15                  max_taylor     :             4
  ----------------------------------- OT ---------------------------------------

  Step     Update method      Time    Convergence         Total energy    Change
  ------------------------------------------------------------------------------
     1 OT DIIS     0.80E-01    4.8     0.00016553      -902.8160624415 -9.03E+02
     2 OT DIIS     0.80E-01    6.0     0.00008605      -902.8161568077 -9.44E-05
     3 OT DIIS     0.80E-01    6.0     0.00005350      -902.8161839891 -2.72E-05
     4 OT DIIS     0.80E-01    6.0     0.00001967      -902.8161950909 -1.11E-05
     5 OT DIIS     0.80E-01    6.0     0.00000927      -902.8161967552 -1.66E-06

  *** SCF run converged in     5 steps ***


  Electronic density on regular grids:       -407.9999945622        0.0000054378
  Core density on regular grids:              407.9999999749       -0.0000000251
  Total charge density on r-space grids:        0.0000054127
  Total charge density g-space grids:           0.0000054127

  Overlap energy of the core charge distribution:               0.00000006333562
  Self energy of the core charge distribution:              -2342.23014539452743
  Core Hamiltonian energy:                                    682.86258453558253
  Hartree energy:                                             971.45747452327043
  Exchange-correlation energy:                               -214.90611048282375

  Total energy:                                              -902.81619675516231

 ENERGY| Total FORCE_EVAL ( QS ) energy [hartree]           -902.816197112998680

 OPT| **************************************************************************
 OPT| Step number                                                             61
 OPT| Optimization method                                                  LBFGS
 OPT| Total energy [hartree]                                     -902.8161971130
 OPT| Effective energy change [hartree]                            -0.0002930971
 OPT| Decrease in energy                                                     YES
 OPT| Used time [s]                                                       37.789
 OPT|
 OPT| Maximum step size                                             0.0539124408
 OPT| Convergence limit for maximum step size                       0.0030000000
 OPT| Maximum step size is converged                                          NO
 OPT|
 OPT| RMS step size                                                 0.0075366540
 OPT| Convergence limit for RMS step size                           0.0015000000
 OPT| RMS step size is converged                                              NO
 OPT|
 OPT| Maximum gradient                                              0.0084009862
 OPT| Convergence limit for maximum gradient                        0.0010000000
 OPT| Maximum gradient is converged                                           NO
 OPT|
 OPT| RMS gradient                                                  0.0011210734
 OPT| Convergence limit for RMS gradient                            0.0003000000
 OPT| RMS gradient is converged                                               NO
 OPT| **************************************************************************
 OPT| Estimated peak process memory after this step [MiB]                   1798

 --------------------------
 OPTIMIZATION STEP:     62
 --------------------------

 Number of electrons:                                                        408
 Number of occupied orbitals:                                                204
 Number of molecular orbitals:                                               204

 Number of orbital functions:                                                314
 Number of independent orbital functions:                                    314

 Extrapolation method: ASPC


 SCF WAVEFUNCTION OPTIMIZATION

  ----------------------------------- OT ---------------------------------------
  Minimizer      : DIIS                : direct inversion
                                         in the iterative subspace
                                         using   7 DIIS vectors
                                         safer DIIS on
  Preconditioner : FULL_SINGLE_INVERSE : inversion of 
                                         H + eS - 2*(Sc)(c^T*H*c+const)(Sc)^T
  Precond_solver : DEFAULT
  stepsize       :    0.08000000                  energy_gap     :    0.08000000
  eps_taylor     :   0.10000E-15                  max_taylor     :             4
  ----------------------------------- OT ---------------------------------------

  Step     Update method      Time    Convergence         Total energy    Change
  ------------------------------------------------------------------------------
     1 OT DIIS     0.80E-01    4.8     0.00054397      -902.8149073522 -9.03E+02
     2 OT DIIS     0.80E-01    6.0     0.00030760      -902.8160592772 -1.15E-03
     3 OT DIIS     0.80E-01    6.0     0.00014654      -902.8165741179 -5.15E-04
     4 OT DIIS     0.80E-01    6.0     0.00005467      -902.8166489020 -7.48E-05
     5 OT DIIS     0.80E-01    6.0     0.00002481      -902.8166617364 -1.28E-05
     6 OT DIIS     0.80E-01    6.0     0.00001214      -902.8166643573 -2.62E-06
     7 OT DIIS     0.80E-01    6.0     0.00000558      -902.8166649826 -6.25E-07

  *** SCF run converged in     7 steps ***


  Electronic density on regular grids:       -407.9999944847        0.0000055153
  Core density on regular grids:              407.9999999750       -0.0000000250
  Total charge density on r-space grids:        0.0000054903
  Total charge density g-space grids:           0.0000054903

  Overlap energy of the core charge distribution:               0.00000006345021
  Self energy of the core charge distribution:              -2342.23014539452743
  Core Hamiltonian energy:                                    682.82262362861559
  Hartree energy:                                             971.48738977510777
  Exchange-correlation energy:                               -214.89653305521830

  Total energy:                                              -902.81666498257255

 ENERGY| Total FORCE_EVAL ( QS ) energy [hartree]           -902.816665104714502

 OPT| **************************************************************************
 OPT| Step number                                                             62
 OPT| Optimization method                                                  LBFGS
 OPT| Total energy [hartree]                                     -902.8166651047
 OPT| Effective energy change [hartree]                            -0.0004679917
 OPT| Decrease in energy                                                     YES
 OPT| Used time [s]                                                       49.812
 OPT|
 OPT| Maximum step size                                             0.0855001336
 OPT| Convergence limit for maximum step size                       0.0030000000
 OPT| Maximum step size is converged                                          NO
 OPT|
 OPT| RMS step size                                                 0.0089222095
 OPT| Convergence limit for RMS step size                           0.0015000000
 OPT| RMS step size is converged                                              NO
 OPT|
 OPT| Maximum gradient                                              0.0043107130
 OPT| Convergence limit for maximum gradient                        0.0010000000
 OPT| Maximum gradient is converged                                           NO
 OPT|
 OPT| RMS gradient                                                  0.0007909179
 OPT| Convergence limit for RMS gradient                            0.0003000000
 OPT| RMS gradient is converged                                               NO
 OPT| **************************************************************************
 OPT| Estimated peak process memory after this step [MiB]                   1798

 --------------------------
 OPTIMIZATION STEP:     63
 --------------------------

 Number of electrons:                                                        408
 Number of occupied orbitals:                                                204
 Number of molecular orbitals:                                               204

 Number of orbital functions:                                                314
 Number of independent orbital functions:                                    314

 Extrapolation method: ASPC


 SCF WAVEFUNCTION OPTIMIZATION

  ----------------------------------- OT ---------------------------------------
  Minimizer      : DIIS                : direct inversion
                                         in the iterative subspace
                                         using   7 DIIS vectors
                                         safer DIIS on
  Preconditioner : FULL_SINGLE_INVERSE : inversion of 
                                         H + eS - 2*(Sc)(c^T*H*c+const)(Sc)^T
  Precond_solver : DEFAULT
  stepsize       :    0.08000000                  energy_gap     :    0.08000000
  eps_taylor     :   0.10000E-15                  max_taylor     :             4
  ----------------------------------- OT ---------------------------------------

  Step     Update method      Time    Convergence         Total energy    Change
  ------------------------------------------------------------------------------
     1 OT DIIS     0.80E-01    4.8     0.00088196      -902.8121739661 -9.03E+02
     2 OT DIIS     0.80E-01    6.0     0.00049507      -902.8152296749 -3.06E-03
     3 OT DIIS     0.80E-01    6.0     0.00018547      -902.8166414038 -1.41E-03
     4 OT DIIS     0.80E-01    6.0     0.00008306      -902.8167587979 -1.17E-04
     5 OT DIIS     0.80E-01    6.0     0.00003795      -902.8167873388 -2.85E-05
     6 OT DIIS     0.80E-01    6.0     0.00001936      -902.8167931961 -5.86E-06
     7 OT DIIS     0.80E-01    6.0     0.00000932      -902.8167946380 -1.44E-06

  *** SCF run converged in     7 steps ***


  Electronic density on regular grids:       -407.9999943815        0.0000056185
  Core density on regular grids:              407.9999999749       -0.0000000251
  Total charge density on r-space grids:        0.0000055934
  Total charge density g-space grids:           0.0000055934

  Overlap energy of the core charge distribution:               0.00000006179478
  Self energy of the core charge distribution:              -2342.23014539452743
  Core Hamiltonian energy:                                    682.80263567518023
  Hartree energy:                                             971.50032430425733
  Exchange-correlation energy:                               -214.88960928471656

  Total energy:                                              -902.81679463801174

 ENERGY| Total FORCE_EVAL ( QS ) energy [hartree]           -902.816794924792930

 OPT| **************************************************************************
 OPT| Step number                                                             63
 OPT| Optimization method                                                  LBFGS
 OPT| Total energy [hartree]                                     -902.8167949248
 OPT| Effective energy change [hartree]                            -0.0001298201
 OPT| Decrease in energy                                                     YES
 OPT| Used time [s]                                                       49.843
 OPT|
 OPT| Maximum step size                                             0.0098933203
 OPT| Convergence limit for maximum step size                       0.0030000000
 OPT| Maximum step size is converged                                          NO
 OPT|
 OPT| RMS step size                                                 0.0019529291
 OPT| Convergence limit for RMS step size                           0.0015000000
 OPT| RMS step size is converged                                              NO
 OPT|
 OPT| Maximum gradient                                              0.0060862589
 OPT| Convergence limit for maximum gradient                        0.0010000000
 OPT| Maximum gradient is converged                                           NO
 OPT|
 OPT| RMS gradient                                                  0.0007232412
 OPT| Convergence limit for RMS gradient                            0.0003000000
 OPT| RMS gradient is converged                                               NO
 OPT| **************************************************************************
 OPT| Estimated peak process memory after this step [MiB]                   1798

 --------------------------
 OPTIMIZATION STEP:     64
 --------------------------

 Number of electrons:                                                        408
 Number of occupied orbitals:                                                204
 Number of molecular orbitals:                                               204

 Number of orbital functions:                                                314
 Number of independent orbital functions:                                    314

 Extrapolation method: ASPC


 SCF WAVEFUNCTION OPTIMIZATION

  ----------------------------------- OT ---------------------------------------
  Minimizer      : DIIS                : direct inversion
                                         in the iterative subspace
                                         using   7 DIIS vectors
                                         safer DIIS on
  Preconditioner : FULL_SINGLE_INVERSE : inversion of 
                                         H + eS - 2*(Sc)(c^T*H*c+const)(Sc)^T
  Precond_solver : DEFAULT
  stepsize       :    0.08000000                  energy_gap     :    0.08000000
  eps_taylor     :   0.10000E-15                  max_taylor     :             4
  ----------------------------------- OT ---------------------------------------

  Step     Update method      Time    Convergence         Total energy    Change
  ------------------------------------------------------------------------------
     1 OT DIIS     0.80E-01    4.8     0.00059064      -902.8148561779 -9.03E+02
     2 OT DIIS     0.80E-01    6.0     0.00032696      -902.8162145516 -1.36E-03
     3 OT DIIS     0.80E-01    6.0     0.00012078      -902.8168201817 -6.06E-04
     4 OT DIIS     0.80E-01    6.0     0.00005562      -902.8168782634 -5.81E-05
     5 OT DIIS     0.80E-01    6.0     0.00002952      -902.8168893742 -1.11E-05
     6 OT DIIS     0.80E-01    6.0     0.00001322      -902.8168922352 -2.86E-06
     7 OT DIIS     0.80E-01    6.0     0.00000650      -902.8168929616 -7.26E-07

  *** SCF run converged in     7 steps ***


  Electronic density on regular grids:       -407.9999943736        0.0000056264
  Core density on regular grids:              407.9999999749       -0.0000000251
  Total charge density on r-space grids:        0.0000056013
  Total charge density g-space grids:           0.0000056013

  Overlap energy of the core charge distribution:               0.00000006248477
  Self energy of the core charge distribution:              -2342.23014539452743
  Core Hamiltonian energy:                                    682.80745892442110
  Hartree energy:                                             971.49726791936041
  Exchange-correlation energy:                               -214.89147447338345

  Total energy:                                              -902.81689296164484

 ENERGY| Total FORCE_EVAL ( QS ) energy [hartree]           -902.816893129393407

 OPT| **************************************************************************
 OPT| Step number                                                             64
 OPT| Optimization method                                                  LBFGS
 OPT| Total energy [hartree]                                     -902.8168931294
 OPT| Effective energy change [hartree]                            -0.0000982046
 OPT| Decrease in energy                                                     YES
 OPT| Used time [s]                                                       49.812
 OPT|
 OPT| Maximum step size                                             0.0086147748
 OPT| Convergence limit for maximum step size                       0.0030000000
 OPT| Maximum step size is converged                                          NO
 OPT|
 OPT| RMS step size                                                 0.0010994961
 OPT| Convergence limit for RMS step size                           0.0015000000
 OPT| RMS step size is converged                                             YES
 OPT|
 OPT| Maximum gradient                                              0.0023309888
 OPT| Convergence limit for maximum gradient                        0.0010000000
 OPT| Maximum gradient is converged                                           NO
 OPT|
 OPT| RMS gradient                                                  0.0003939312
 OPT| Convergence limit for RMS gradient                            0.0003000000
 OPT| RMS gradient is converged                                               NO
 OPT| **************************************************************************
 OPT| Estimated peak process memory after this step [MiB]                   1798

 --------------------------
 OPTIMIZATION STEP:     65
 --------------------------

 Number of electrons:                                                        408
 Number of occupied orbitals:                                                204
 Number of molecular orbitals:                                               204

 Number of orbital functions:                                                314
 Number of independent orbital functions:                                    314

 Extrapolation method: ASPC


 SCF WAVEFUNCTION OPTIMIZATION

  ----------------------------------- OT ---------------------------------------
  Minimizer      : DIIS                : direct inversion
                                         in the iterative subspace
                                         using   7 DIIS vectors
                                         safer DIIS on
  Preconditioner : FULL_SINGLE_INVERSE : inversion of 
                                         H + eS - 2*(Sc)(c^T*H*c+const)(Sc)^T
  Precond_solver : DEFAULT
  stepsize       :    0.08000000                  energy_gap     :    0.08000000
  eps_taylor     :   0.10000E-15                  max_taylor     :             4
  ----------------------------------- OT ---------------------------------------

  Step     Update method      Time    Convergence         Total energy    Change
  ------------------------------------------------------------------------------
     1 OT DIIS     0.80E-01    4.8     0.00023667      -902.8166831965 -9.03E+02
     2 OT DIIS     0.80E-01    6.0     0.00012544      -902.8168899381 -2.07E-04
     3 OT DIIS     0.80E-01    6.0     0.00006743      -902.8169633060 -7.34E-05
     4 OT DIIS     0.80E-01    6.0     0.00002798      -902.8169809018 -1.76E-05
     5 OT DIIS     0.80E-01    6.0     0.00001387      -902.8169833975 -2.50E-06
     6 OT DIIS     0.80E-01    6.0     0.00000585      -902.8169839949 -5.97E-07

  *** SCF run converged in     6 steps ***


  Electronic density on regular grids:       -407.9999943267        0.0000056733
  Core density on regular grids:              407.9999999749       -0.0000000251
  Total charge density on r-space grids:        0.0000056482
  Total charge density g-space grids:           0.0000056482

  Overlap energy of the core charge distribution:               0.00000006283818
  Self energy of the core charge distribution:              -2342.23014539452743
  Core Hamiltonian energy:                                    682.80478325666809
  Hartree energy:                                             971.49944592709176
  Exchange-correlation energy:                               -214.89106784696949

  Total energy:                                              -902.81698399489869

 ENERGY| Total FORCE_EVAL ( QS ) energy [hartree]           -902.816984112196451

 OPT| **************************************************************************
 OPT| Step number                                                             65
 OPT| Optimization method                                                  LBFGS
 OPT| Total energy [hartree]                                     -902.8169841122
 OPT| Effective energy change [hartree]                            -0.0000909828
 OPT| Decrease in energy                                                     YES
 OPT| Used time [s]                                                       43.812
 OPT|
 OPT| Maximum step size                                             0.0118928033
 OPT| Convergence limit for maximum step size                       0.0030000000
 OPT| Maximum step size is converged                                          NO
 OPT|
 OPT| RMS step size                                                 0.0016388979
 OPT| Convergence limit for RMS step size                           0.0015000000
 OPT| RMS step size is converged                                              NO
 OPT|
 OPT| Maximum gradient                                              0.0024167127
 OPT| Convergence limit for maximum gradient                        0.0010000000
 OPT| Maximum gradient is converged                                           NO
 OPT|
 OPT| RMS gradient                                                  0.0003423628
 OPT| Convergence limit for RMS gradient                            0.0003000000
 OPT| RMS gradient is converged                                               NO
 OPT| **************************************************************************
 OPT| Estimated peak process memory after this step [MiB]                   1798

 --------------------------
 OPTIMIZATION STEP:     66
 --------------------------

 Number of electrons:                                                        408
 Number of occupied orbitals:                                                204
 Number of molecular orbitals:                                               204

 Number of orbital functions:                                                314
 Number of independent orbital functions:                                    314

 Extrapolation method: ASPC


 SCF WAVEFUNCTION OPTIMIZATION

  ----------------------------------- OT ---------------------------------------
  Minimizer      : DIIS                : direct inversion
                                         in the iterative subspace
                                         using   7 DIIS vectors
                                         safer DIIS on
  Preconditioner : FULL_SINGLE_INVERSE : inversion of 
                                         H + eS - 2*(Sc)(c^T*H*c+const)(Sc)^T
  Precond_solver : DEFAULT
  stepsize       :    0.08000000                  energy_gap     :    0.08000000
  eps_taylor     :   0.10000E-15                  max_taylor     :             4
  ----------------------------------- OT ---------------------------------------

  Step     Update method      Time    Convergence         Total energy    Change
  ------------------------------------------------------------------------------
     1 OT DIIS     0.80E-01    4.8     0.00007267      -902.8170584830 -9.03E+02
     2 OT DIIS     0.80E-01    6.0     0.00003946      -902.8170763781 -1.79E-05
     3 OT DIIS     0.80E-01    6.0     0.00002490      -902.8170816508 -5.27E-06
     4 OT DIIS     0.80E-01    6.0     0.00000871      -902.8170841882 -2.54E-06

  *** SCF run converged in     4 steps ***


  Electronic density on regular grids:       -407.9999942491        0.0000057509
  Core density on regular grids:              407.9999999749       -0.0000000251
  Total charge density on r-space grids:        0.0000057258
  Total charge density g-space grids:           0.0000057258

  Overlap energy of the core charge distribution:               0.00000006301959
  Self energy of the core charge distribution:              -2342.23014539452743
  Core Hamiltonian energy:                                    682.79518198989206
  Hartree energy:                                             971.50668801549773
  Exchange-correlation energy:                               -214.88880886212246

  Total energy:                                              -902.81708418824019

 ENERGY| Total FORCE_EVAL ( QS ) energy [hartree]           -902.817084455486111

 OPT| **************************************************************************
 OPT| Step number                                                             66
 OPT| Optimization method                                                  LBFGS
 OPT| Total energy [hartree]                                     -902.8170844555
 OPT| Effective energy change [hartree]                            -0.0001003433
 OPT| Decrease in energy                                                     YES
 OPT| Used time [s]                                                       31.767
 OPT|
 OPT| Maximum step size                                             0.0128726173
 OPT| Convergence limit for maximum step size                       0.0030000000
 OPT| Maximum step size is converged                                          NO
 OPT|
 OPT| RMS step size                                                 0.0022317766
 OPT| Convergence limit for RMS step size                           0.0015000000
 OPT| RMS step size is converged                                              NO
 OPT|
 OPT| Maximum gradient                                              0.0039743694
 OPT| Convergence limit for maximum gradient                        0.0010000000
 OPT| Maximum gradient is converged                                           NO
 OPT|
 OPT| RMS gradient                                                  0.0004360484
 OPT| Convergence limit for RMS gradient                            0.0003000000
 OPT| RMS gradient is converged                                               NO
 OPT| **************************************************************************
 OPT| Estimated peak process memory after this step [MiB]                   1798

 --------------------------
 OPTIMIZATION STEP:     67
 --------------------------

 Number of electrons:                                                        408
 Number of occupied orbitals:                                                204
 Number of molecular orbitals:                                               204

 Number of orbital functions:                                                314
 Number of independent orbital functions:                                    314

 Extrapolation method: ASPC


 SCF WAVEFUNCTION OPTIMIZATION

  ----------------------------------- OT ---------------------------------------
  Minimizer      : DIIS                : direct inversion
                                         in the iterative subspace
                                         using   7 DIIS vectors
                                         safer DIIS on
  Preconditioner : FULL_SINGLE_INVERSE : inversion of 
                                         H + eS - 2*(Sc)(c^T*H*c+const)(Sc)^T
  Precond_solver : DEFAULT
  stepsize       :    0.08000000                  energy_gap     :    0.08000000
  eps_taylor     :   0.10000E-15                  max_taylor     :             4
  ----------------------------------- OT ---------------------------------------

  Step     Update method      Time    Convergence         Total energy    Change
  ------------------------------------------------------------------------------
     1 OT DIIS     0.80E-01    4.8     0.00007739      -902.8171999575 -9.03E+02
     2 OT DIIS     0.80E-01    6.0     0.00004547      -902.8172223049 -2.23E-05
     3 OT DIIS     0.80E-01    6.0     0.00003181      -902.8172308133 -8.51E-06
     4 OT DIIS     0.80E-01    6.0     0.00001116      -902.8172344465 -3.63E-06
     5 OT DIIS     0.80E-01    6.0     0.00000524      -902.8172348800 -4.34E-07

  *** SCF run converged in     5 steps ***


  Electronic density on regular grids:       -407.9999941085        0.0000058915
  Core density on regular grids:              407.9999999750       -0.0000000250
  Total charge density on r-space grids:        0.0000058665
  Total charge density g-space grids:           0.0000058665

  Overlap energy of the core charge distribution:               0.00000006221676
  Self energy of the core charge distribution:              -2342.23014539452743
  Core Hamiltonian energy:                                    682.77348310454806
  Hartree energy:                                             971.52200824620763
  Exchange-correlation energy:                               -214.88258089844322

  Total energy:                                              -902.81723487999807

 ENERGY| Total FORCE_EVAL ( QS ) energy [hartree]           -902.817234978363786

 OPT| **************************************************************************
 OPT| Step number                                                             67
 OPT| Optimization method                                                  LBFGS
 OPT| Total energy [hartree]                                     -902.8172349784
 OPT| Effective energy change [hartree]                            -0.0001505229
 OPT| Decrease in energy                                                     YES
 OPT| Used time [s]                                                       37.794
 OPT|
 OPT| Maximum step size                                             0.0297775700
 OPT| Convergence limit for maximum step size                       0.0030000000
 OPT| Maximum step size is converged                                          NO
 OPT|
 OPT| RMS step size                                                 0.0048011254
 OPT| Convergence limit for RMS step size                           0.0015000000
 OPT| RMS step size is converged                                              NO
 OPT|
 OPT| Maximum gradient                                              0.0058434017
 OPT| Convergence limit for maximum gradient                        0.0010000000
 OPT| Maximum gradient is converged                                           NO
 OPT|
 OPT| RMS gradient                                                  0.0006684197
 OPT| Convergence limit for RMS gradient                            0.0003000000
 OPT| RMS gradient is converged                                               NO
 OPT| **************************************************************************
 OPT| Estimated peak process memory after this step [MiB]                   1798

 --------------------------
 OPTIMIZATION STEP:     68
 --------------------------

 Number of electrons:                                                        408
 Number of occupied orbitals:                                                204
 Number of molecular orbitals:                                               204

 Number of orbital functions:                                                314
 Number of independent orbital functions:                                    314

 Extrapolation method: ASPC


 SCF WAVEFUNCTION OPTIMIZATION

  ----------------------------------- OT ---------------------------------------
  Minimizer      : DIIS                : direct inversion
                                         in the iterative subspace
                                         using   7 DIIS vectors
                                         safer DIIS on
  Preconditioner : FULL_SINGLE_INVERSE : inversion of 
                                         H + eS - 2*(Sc)(c^T*H*c+const)(Sc)^T
  Precond_solver : DEFAULT
  stepsize       :    0.08000000                  energy_gap     :    0.08000000
  eps_taylor     :   0.10000E-15                  max_taylor     :             4
  ----------------------------------- OT ---------------------------------------

  Step     Update method      Time    Convergence         Total energy    Change
  ------------------------------------------------------------------------------
     1 OT DIIS     0.80E-01    4.8     0.00012744      -902.8172523711 -9.03E+02
     2 OT DIIS     0.80E-01    6.0     0.00006924      -902.8173086992 -5.63E-05
     3 OT DIIS     0.80E-01    6.0     0.00004933      -902.8173251130 -1.64E-05
     4 OT DIIS     0.80E-01    6.0     0.00002010      -902.8173330044 -7.89E-06
     5 OT DIIS     0.80E-01    6.0     0.00000933      -902.8173345261 -1.52E-06

  *** SCF run converged in     5 steps ***


  Electronic density on regular grids:       -407.9999940042        0.0000059958
  Core density on regular grids:              407.9999999751       -0.0000000249
  Total charge density on r-space grids:        0.0000059708
  Total charge density g-space grids:           0.0000059708

  Overlap energy of the core charge distribution:               0.00000006364828
  Self energy of the core charge distribution:              -2342.23014539452743
  Core Hamiltonian energy:                                    682.76186006186708
  Hartree energy:                                             971.53200700170748
  Exchange-correlation energy:                               -214.88105625883395

  Total energy:                                              -902.81733452613855

 ENERGY| Total FORCE_EVAL ( QS ) energy [hartree]           -902.817334891043515

 OPT| **************************************************************************
 OPT| Step number                                                             68
 OPT| Optimization method                                                  LBFGS
 OPT| Total energy [hartree]                                     -902.8173348910
 OPT| Effective energy change [hartree]                            -0.0000999127
 OPT| Decrease in energy                                                     YES
 OPT| Used time [s]                                                       37.766
 OPT|
 OPT| Maximum step size                                             0.0334553696
 OPT| Convergence limit for maximum step size                       0.0030000000
 OPT| Maximum step size is converged                                          NO
 OPT|
 OPT| RMS step size                                                 0.0053165900
 OPT| Convergence limit for RMS step size                           0.0015000000
 OPT| RMS step size is converged                                              NO
 OPT|
 OPT| Maximum gradient                                              0.0042151123
 OPT| Convergence limit for maximum gradient                        0.0010000000
 OPT| Maximum gradient is converged                                           NO
 OPT|
 OPT| RMS gradient                                                  0.0007581281
 OPT| Convergence limit for RMS gradient                            0.0003000000
 OPT| RMS gradient is converged                                               NO
 OPT| **************************************************************************
 OPT| Estimated peak process memory after this step [MiB]                   1798

 --------------------------
 OPTIMIZATION STEP:     69
 --------------------------

 Number of electrons:                                                        408
 Number of occupied orbitals:                                                204
 Number of molecular orbitals:                                               204

 Number of orbital functions:                                                314
 Number of independent orbital functions:                                    314

 Extrapolation method: ASPC


 SCF WAVEFUNCTION OPTIMIZATION

  ----------------------------------- OT ---------------------------------------
  Minimizer      : DIIS                : direct inversion
                                         in the iterative subspace
                                         using   7 DIIS vectors
                                         safer DIIS on
  Preconditioner : FULL_SINGLE_INVERSE : inversion of 
                                         H + eS - 2*(Sc)(c^T*H*c+const)(Sc)^T
  Precond_solver : DEFAULT
  stepsize       :    0.08000000                  energy_gap     :    0.08000000
  eps_taylor     :   0.10000E-15                  max_taylor     :             4
  ----------------------------------- OT ---------------------------------------

  Step     Update method      Time    Convergence         Total energy    Change
  ------------------------------------------------------------------------------
     1 OT DIIS     0.80E-01    4.8     0.00021431      -902.8172385399 -9.03E+02
     2 OT DIIS     0.80E-01    6.0     0.00011767      -902.8174033298 -1.65E-04
     3 OT DIIS     0.80E-01    6.0     0.00008051      -902.8174572317 -5.39E-05
     4 OT DIIS     0.80E-01    6.0     0.00003299      -902.8174796023 -2.24E-05
     5 OT DIIS     0.80E-01    6.0     0.00001523      -902.8174836552 -4.05E-06
     6 OT DIIS     0.80E-01    6.0     0.00000623      -902.8174845546 -8.99E-07

  *** SCF run converged in     6 steps ***


  Electronic density on regular grids:       -407.9999940335        0.0000059665
  Core density on regular grids:              407.9999999751       -0.0000000249
  Total charge density on r-space grids:        0.0000059415
  Total charge density g-space grids:           0.0000059415

  Overlap energy of the core charge distribution:               0.00000006260486
  Self energy of the core charge distribution:              -2342.23014539452743
  Core Hamiltonian energy:                                    682.76765187967953
  Hartree energy:                                             971.52692558645049
  Exchange-correlation energy:                               -214.88191668880705

  Total energy:                                              -902.81748455459933

 ENERGY| Total FORCE_EVAL ( QS ) energy [hartree]           -902.817484698215139

 OPT| **************************************************************************
 OPT| Step number                                                             69
 OPT| Optimization method                                                  LBFGS
 OPT| Total energy [hartree]                                     -902.8174846982
 OPT| Effective energy change [hartree]                            -0.0001498072
 OPT| Decrease in energy                                                     YES
 OPT| Used time [s]                                                       43.805
 OPT|
 OPT| Maximum step size                                             0.0086485121
 OPT| Convergence limit for maximum step size                       0.0030000000
 OPT| Maximum step size is converged                                          NO
 OPT|
 OPT| RMS step size                                                 0.0012825483
 OPT| Convergence limit for RMS step size                           0.0015000000
 OPT| RMS step size is converged                                             YES
 OPT|
 OPT| Maximum gradient                                              0.0026328131
 OPT| Convergence limit for maximum gradient                        0.0010000000
 OPT| Maximum gradient is converged                                           NO
 OPT|
 OPT| RMS gradient                                                  0.0003855503
 OPT| Convergence limit for RMS gradient                            0.0003000000
 OPT| RMS gradient is converged                                               NO
 OPT| **************************************************************************
 OPT| Estimated peak process memory after this step [MiB]                   1798

 --------------------------
 OPTIMIZATION STEP:     70
 --------------------------

 Number of electrons:                                                        408
 Number of occupied orbitals:                                                204
 Number of molecular orbitals:                                               204

 Number of orbital functions:                                                314
 Number of independent orbital functions:                                    314

 Extrapolation method: ASPC


 SCF WAVEFUNCTION OPTIMIZATION

  ----------------------------------- OT ---------------------------------------
  Minimizer      : DIIS                : direct inversion
                                         in the iterative subspace
                                         using   7 DIIS vectors
                                         safer DIIS on
  Preconditioner : FULL_SINGLE_INVERSE : inversion of 
                                         H + eS - 2*(Sc)(c^T*H*c+const)(Sc)^T
  Precond_solver : DEFAULT
  stepsize       :    0.08000000                  energy_gap     :    0.08000000
  eps_taylor     :   0.10000E-15                  max_taylor     :             4
  ----------------------------------- OT ---------------------------------------

  Step     Update method      Time    Convergence         Total energy    Change
  ------------------------------------------------------------------------------
     1 OT DIIS     0.80E-01    4.8     0.00024927      -902.8172289752 -9.03E+02
     2 OT DIIS     0.80E-01    6.2     0.00014377      -902.8174669916 -2.38E-04
     3 OT DIIS     0.80E-01    6.8     0.00008883      -902.8175675423 -1.01E-04
     4 OT DIIS     0.80E-01    6.6     0.00003206      -902.8175953019 -2.78E-05
     5 OT DIIS     0.80E-01    6.0     0.00001449      -902.8175992757 -3.97E-06
     6 OT DIIS     0.80E-01    6.0     0.00000690      -902.8176000166 -7.41E-07

  *** SCF run converged in     6 steps ***


  Electronic density on regular grids:       -407.9999940364        0.0000059636
  Core density on regular grids:              407.9999999751       -0.0000000249
  Total charge density on r-space grids:        0.0000059387
  Total charge density g-space grids:           0.0000059387

  Overlap energy of the core charge distribution:               0.00000006222508
  Self energy of the core charge distribution:              -2342.23014539452743
  Core Hamiltonian energy:                                    682.77690199860376
  Hartree energy:                                             971.51950170817383
  Exchange-correlation energy:                               -214.88385839106067

  Total energy:                                              -902.81760001658563

 ENERGY| Total FORCE_EVAL ( QS ) energy [hartree]           -902.817600181826833

 OPT| **************************************************************************
 OPT| Step number                                                             70
 OPT| Optimization method                                                  LBFGS
 OPT| Total energy [hartree]                                     -902.8176001818
 OPT| Effective energy change [hartree]                            -0.0001154836
 OPT| Decrease in energy                                                     YES
 OPT| Used time [s]                                                       46.472
 OPT|
 OPT| Maximum step size                                             0.0136897842
 OPT| Convergence limit for maximum step size                       0.0030000000
 OPT| Maximum step size is converged                                          NO
 OPT|
 OPT| RMS step size                                                 0.0026169515
 OPT| Convergence limit for RMS step size                           0.0015000000
 OPT| RMS step size is converged                                              NO
 OPT|
 OPT| Maximum gradient                                              0.0020150240
 OPT| Convergence limit for maximum gradient                        0.0010000000
 OPT| Maximum gradient is converged                                           NO
 OPT|
 OPT| RMS gradient                                                  0.0003510148
 OPT| Convergence limit for RMS gradient                            0.0003000000
 OPT| RMS gradient is converged                                               NO
 OPT| **************************************************************************
 OPT| Estimated peak process memory after this step [MiB]                   1798

 --------------------------
 OPTIMIZATION STEP:     71
 --------------------------

 Number of electrons:                                                        408
 Number of occupied orbitals:                                                204
 Number of molecular orbitals:                                               204

 Number of orbital functions:                                                314
 Number of independent orbital functions:                                    314

 Extrapolation method: ASPC


 SCF WAVEFUNCTION OPTIMIZATION

  ----------------------------------- OT ---------------------------------------
  Minimizer      : DIIS                : direct inversion
                                         in the iterative subspace
                                         using   7 DIIS vectors
                                         safer DIIS on
  Preconditioner : FULL_SINGLE_INVERSE : inversion of 
                                         H + eS - 2*(Sc)(c^T*H*c+const)(Sc)^T
  Precond_solver : DEFAULT
  stepsize       :    0.08000000                  energy_gap     :    0.08000000
  eps_taylor     :   0.10000E-15                  max_taylor     :             4
  ----------------------------------- OT ---------------------------------------

  Step     Update method      Time    Convergence         Total energy    Change
  ------------------------------------------------------------------------------
     1 OT DIIS     0.80E-01    5.0     0.00014030      -902.8175622864 -9.03E+02
     2 OT DIIS     0.80E-01    6.0     0.00008122      -902.8176370390 -7.48E-05
     3 OT DIIS     0.80E-01    6.0     0.00005384      -902.8176667048 -2.97E-05
     4 OT DIIS     0.80E-01    6.0     0.00001585      -902.8176763832 -9.68E-06
     5 OT DIIS     0.80E-01    6.0     0.00000717      -902.8176774620 -1.08E-06

  *** SCF run converged in     5 steps ***


  Electronic density on regular grids:       -407.9999940062        0.0000059938
  Core density on regular grids:              407.9999999751       -0.0000000249
  Total charge density on r-space grids:        0.0000059689
  Total charge density g-space grids:           0.0000059689

  Overlap energy of the core charge distribution:               0.00000006227462
  Self energy of the core charge distribution:              -2342.23014539452743
  Core Hamiltonian energy:                                    682.78533673788934
  Hartree energy:                                             971.51353157230096
  Exchange-correlation energy:                               -214.88640043991211

  Total energy:                                              -902.81767746197477

 ENERGY| Total FORCE_EVAL ( QS ) energy [hartree]           -902.817677655210673

 OPT| **************************************************************************
 OPT| Step number                                                             71
 OPT| Optimization method                                                  LBFGS
 OPT| Total energy [hartree]                                     -902.8176776552
 OPT| Effective energy change [hartree]                            -0.0000774734
 OPT| Decrease in energy                                                     YES
 OPT| Used time [s]                                                       38.369
 OPT|
 OPT| Maximum step size                                             0.0157757344
 OPT| Convergence limit for maximum step size                       0.0030000000
 OPT| Maximum step size is converged                                          NO
 OPT|
 OPT| RMS step size                                                 0.0026085804
 OPT| Convergence limit for RMS step size                           0.0015000000
 OPT| RMS step size is converged                                              NO
 OPT|
 OPT| Maximum gradient                                              0.0015302481
 OPT| Convergence limit for maximum gradient                        0.0010000000
 OPT| Maximum gradient is converged                                           NO
 OPT|
 OPT| RMS gradient                                                  0.0003859472
 OPT| Convergence limit for RMS gradient                            0.0003000000
 OPT| RMS gradient is converged                                               NO
 OPT| **************************************************************************
 OPT| Estimated peak process memory after this step [MiB]                   1798

 --------------------------
 OPTIMIZATION STEP:     72
 --------------------------

 Number of electrons:                                                        408
 Number of occupied orbitals:                                                204
 Number of molecular orbitals:                                               204

 Number of orbital functions:                                                314
 Number of independent orbital functions:                                    314

 Extrapolation method: ASPC


 SCF WAVEFUNCTION OPTIMIZATION

  ----------------------------------- OT ---------------------------------------
  Minimizer      : DIIS                : direct inversion
                                         in the iterative subspace
                                         using   7 DIIS vectors
                                         safer DIIS on
  Preconditioner : FULL_SINGLE_INVERSE : inversion of 
                                         H + eS - 2*(Sc)(c^T*H*c+const)(Sc)^T
  Precond_solver : DEFAULT
  stepsize       :    0.08000000                  energy_gap     :    0.08000000
  eps_taylor     :   0.10000E-15                  max_taylor     :             4
  ----------------------------------- OT ---------------------------------------

  Step     Update method      Time    Convergence         Total energy    Change
  ------------------------------------------------------------------------------
     1 OT DIIS     0.80E-01    4.8     0.00010880      -902.8177050046 -9.03E+02
     2 OT DIIS     0.80E-01    6.0     0.00006154      -902.8177483204 -4.33E-05
     3 OT DIIS     0.80E-01    6.0     0.00004320      -902.8177630405 -1.47E-05
     4 OT DIIS     0.80E-01    6.0     0.00001465      -902.8177690160 -5.98E-06
     5 OT DIIS     0.80E-01    6.0     0.00000678      -902.8177697411 -7.25E-07

  *** SCF run converged in     5 steps ***


  Electronic density on regular grids:       -407.9999939197        0.0000060803
  Core density on regular grids:              407.9999999751       -0.0000000249
  Total charge density on r-space grids:        0.0000060554
  Total charge density g-space grids:           0.0000060554

  Overlap energy of the core charge distribution:               0.00000006274173
  Self energy of the core charge distribution:              -2342.23014539452743
  Core Hamiltonian energy:                                    682.79316580398984
  Hartree energy:                                             971.50780212312748
  Exchange-correlation energy:                               -214.88859233647293

  Total energy:                                              -902.81776974114121

 ENERGY| Total FORCE_EVAL ( QS ) energy [hartree]           -902.817769914853670

 OPT| **************************************************************************
 OPT| Step number                                                             72
 OPT| Optimization method                                                  LBFGS
 OPT| Total energy [hartree]                                     -902.8177699149
 OPT| Effective energy change [hartree]                            -0.0000922596
 OPT| Decrease in energy                                                     YES
 OPT| Used time [s]                                                       37.773
 OPT|
 OPT| Maximum step size                                             0.0280235939
 OPT| Convergence limit for maximum step size                       0.0030000000
 OPT| Maximum step size is converged                                          NO
 OPT|
 OPT| RMS step size                                                 0.0043298953
 OPT| Convergence limit for RMS step size                           0.0015000000
 OPT| RMS step size is converged                                              NO
 OPT|
 OPT| Maximum gradient                                              0.0016067646
 OPT| Convergence limit for maximum gradient                        0.0010000000
 OPT| Maximum gradient is converged                                           NO
 OPT|
 OPT| RMS gradient                                                  0.0003678590
 OPT| Convergence limit for RMS gradient                            0.0003000000
 OPT| RMS gradient is converged                                               NO
 OPT| **************************************************************************
 OPT| Estimated peak process memory after this step [MiB]                   1798

 --------------------------
 OPTIMIZATION STEP:     73
 --------------------------

 Number of electrons:                                                        408
 Number of occupied orbitals:                                                204
 Number of molecular orbitals:                                               204

 Number of orbital functions:                                                314
 Number of independent orbital functions:                                    314

 Extrapolation method: ASPC


 SCF WAVEFUNCTION OPTIMIZATION

  ----------------------------------- OT ---------------------------------------
  Minimizer      : DIIS                : direct inversion
                                         in the iterative subspace
                                         using   7 DIIS vectors
                                         safer DIIS on
  Preconditioner : FULL_SINGLE_INVERSE : inversion of 
                                         H + eS - 2*(Sc)(c^T*H*c+const)(Sc)^T
  Precond_solver : DEFAULT
  stepsize       :    0.08000000                  energy_gap     :    0.08000000
  eps_taylor     :   0.10000E-15                  max_taylor     :             4
  ----------------------------------- OT ---------------------------------------

  Step     Update method      Time    Convergence         Total energy    Change
  ------------------------------------------------------------------------------
     1 OT DIIS     0.80E-01    4.8     0.00016818      -902.8176706381 -9.03E+02
     2 OT DIIS     0.80E-01    6.0     0.00009451      -902.8177768509 -1.06E-04
     3 OT DIIS     0.80E-01    6.0     0.00006311      -902.8178161784 -3.93E-05
     4 OT DIIS     0.80E-01    6.0     0.00002184      -902.8178280976 -1.19E-05
     5 OT DIIS     0.80E-01    6.0     0.00000983      -902.8178296932 -1.60E-06

  *** SCF run converged in     5 steps ***


  Electronic density on regular grids:       -407.9999938785        0.0000061215
  Core density on regular grids:              407.9999999752       -0.0000000248
  Total charge density on r-space grids:        0.0000060966
  Total charge density g-space grids:           0.0000060966

  Overlap energy of the core charge distribution:               0.00000006290345
  Self energy of the core charge distribution:              -2342.23014539452743
  Core Hamiltonian energy:                                    682.79806645868382
  Hartree energy:                                             971.50395832802872
  Exchange-correlation energy:                               -214.88970914826712

  Total energy:                                              -902.81782969317851

 ENERGY| Total FORCE_EVAL ( QS ) energy [hartree]           -902.817830059310836

 OPT| **************************************************************************
 OPT| Step number                                                             73
 OPT| Optimization method                                                  LBFGS
 OPT| Total energy [hartree]                                     -902.8178300593
 OPT| Effective energy change [hartree]                            -0.0000601445
 OPT| Decrease in energy                                                     YES
 OPT| Used time [s]                                                       37.776
 OPT|
 OPT| Maximum step size                                             0.0144481645
 OPT| Convergence limit for maximum step size                       0.0030000000
 OPT| Maximum step size is converged                                          NO
 OPT|
 OPT| RMS step size                                                 0.0020548852
 OPT| Convergence limit for RMS step size                           0.0015000000
 OPT| RMS step size is converged                                              NO
 OPT|
 OPT| Maximum gradient                                              0.0022511332
 OPT| Convergence limit for maximum gradient                        0.0010000000
 OPT| Maximum gradient is converged                                           NO
 OPT|
 OPT| RMS gradient                                                  0.0003990177
 OPT| Convergence limit for RMS gradient                            0.0003000000
 OPT| RMS gradient is converged                                               NO
 OPT| **************************************************************************
 OPT| Estimated peak process memory after this step [MiB]                   1798

 --------------------------
 OPTIMIZATION STEP:     74
 --------------------------

 Number of electrons:                                                        408
 Number of occupied orbitals:                                                204
 Number of molecular orbitals:                                               204

 Number of orbital functions:                                                314
 Number of independent orbital functions:                                    314

 Extrapolation method: ASPC


 SCF WAVEFUNCTION OPTIMIZATION

  ----------------------------------- OT ---------------------------------------
  Minimizer      : DIIS                : direct inversion
                                         in the iterative subspace
                                         using   7 DIIS vectors
                                         safer DIIS on
  Preconditioner : FULL_SINGLE_INVERSE : inversion of 
                                         H + eS - 2*(Sc)(c^T*H*c+const)(Sc)^T
  Precond_solver : DEFAULT
  stepsize       :    0.08000000                  energy_gap     :    0.08000000
  eps_taylor     :   0.10000E-15                  max_taylor     :             4
  ----------------------------------- OT ---------------------------------------

  Step     Update method      Time    Convergence         Total energy    Change
  ------------------------------------------------------------------------------
     1 OT DIIS     0.80E-01    4.8     0.00011747      -902.8178125820 -9.03E+02
     2 OT DIIS     0.80E-01    6.0     0.00006202      -902.8178612937 -4.87E-05
     3 OT DIIS     0.80E-01    6.0     0.00004437      -902.8178751294 -1.38E-05
     4 OT DIIS     0.80E-01    6.0     0.00001613      -902.8178805454 -5.42E-06
     5 OT DIIS     0.80E-01    6.0     0.00000649      -902.8178814488 -9.03E-07

  *** SCF run converged in     5 steps ***


  Electronic density on regular grids:       -407.9999938572        0.0000061428
  Core density on regular grids:              407.9999999752       -0.0000000248
  Total charge density on r-space grids:        0.0000061180
  Total charge density g-space grids:           0.0000061180

  Overlap energy of the core charge distribution:               0.00000006298952
  Self energy of the core charge distribution:              -2342.23014539452743
  Core Hamiltonian energy:                                    682.80162489235329
  Hartree energy:                                             971.50133679833698
  Exchange-correlation energy:                               -214.89069780799895

  Total energy:                                              -902.81788144884695

 ENERGY| Total FORCE_EVAL ( QS ) energy [hartree]           -902.817881628740906

 OPT| **************************************************************************
 OPT| Step number                                                             74
 OPT| Optimization method                                                  LBFGS
 OPT| Total energy [hartree]                                     -902.8178816287
 OPT| Effective energy change [hartree]                            -0.0000515694
 OPT| Decrease in energy                                                     YES
 OPT| Used time [s]                                                       37.780
 OPT|
 OPT| Maximum step size                                             0.0086821557
 OPT| Convergence limit for maximum step size                       0.0030000000
 OPT| Maximum step size is converged                                          NO
 OPT|
 OPT| RMS step size                                                 0.0012918585
 OPT| Convergence limit for RMS step size                           0.0015000000
 OPT| RMS step size is converged                                             YES
 OPT|
 OPT| Maximum gradient                                              0.0012596883
 OPT| Convergence limit for maximum gradient                        0.0010000000
 OPT| Maximum gradient is converged                                           NO
 OPT|
 OPT| RMS gradient                                                  0.0002884505
 OPT| Convergence limit for RMS gradient                            0.0003000000
 OPT| RMS gradient is converged                                              YES
 OPT| **************************************************************************
 OPT| Estimated peak process memory after this step [MiB]                   1798

 --------------------------
 OPTIMIZATION STEP:     75
 --------------------------

 Number of electrons:                                                        408
 Number of occupied orbitals:                                                204
 Number of molecular orbitals:                                               204

 Number of orbital functions:                                                314
 Number of independent orbital functions:                                    314

 Extrapolation method: ASPC


 SCF WAVEFUNCTION OPTIMIZATION

  ----------------------------------- OT ---------------------------------------
  Minimizer      : DIIS                : direct inversion
                                         in the iterative subspace
                                         using   7 DIIS vectors
                                         safer DIIS on
  Preconditioner : FULL_SINGLE_INVERSE : inversion of 
                                         H + eS - 2*(Sc)(c^T*H*c+const)(Sc)^T
  Precond_solver : DEFAULT
  stepsize       :    0.08000000                  energy_gap     :    0.08000000
  eps_taylor     :   0.10000E-15                  max_taylor     :             4
  ----------------------------------- OT ---------------------------------------

  Step     Update method      Time    Convergence         Total energy    Change
  ------------------------------------------------------------------------------
     1 OT DIIS     0.80E-01    4.8     0.00007793      -902.8179176980 -9.03E+02
     2 OT DIIS     0.80E-01    6.0     0.00004363      -902.8179390288 -2.13E-05
     3 OT DIIS     0.80E-01    6.0     0.00003273      -902.8179454816 -6.45E-06
     4 OT DIIS     0.80E-01    6.0     0.00001240      -902.8179488353 -3.35E-06
     5 OT DIIS     0.80E-01    6.0     0.00000514      -902.8179494994 -6.64E-07

  *** SCF run converged in     5 steps ***


  Electronic density on regular grids:       -407.9999938352        0.0000061648
  Core density on regular grids:              407.9999999752       -0.0000000248
  Total charge density on r-space grids:        0.0000061401
  Total charge density g-space grids:           0.0000061401

  Overlap energy of the core charge distribution:               0.00000006292203
  Self energy of the core charge distribution:              -2342.23014539452743
  Core Hamiltonian energy:                                    682.81139631347446
  Hartree energy:                                             971.49381083740673
  Exchange-correlation energy:                               -214.89301131870008

  Total energy:                                              -902.81794949942423

 ENERGY| Total FORCE_EVAL ( QS ) energy [hartree]           -902.817949624857306

 OPT| **************************************************************************
 OPT| Step number                                                             75
 OPT| Optimization method                                                  LBFGS
 OPT| Total energy [hartree]                                     -902.8179496249
 OPT| Effective energy change [hartree]                            -0.0000679961
 OPT| Decrease in energy                                                     YES
 OPT| Used time [s]                                                       37.770
 OPT|
 OPT| Maximum step size                                             0.0181661079
 OPT| Convergence limit for maximum step size                       0.0030000000
 OPT| Maximum step size is converged                                          NO
 OPT|
 OPT| RMS step size                                                 0.0023519085
 OPT| Convergence limit for RMS step size                           0.0015000000
 OPT| RMS step size is converged                                              NO
 OPT|
 OPT| Maximum gradient                                              0.0016268874
 OPT| Convergence limit for maximum gradient                        0.0010000000
 OPT| Maximum gradient is converged                                           NO
 OPT|
 OPT| RMS gradient                                                  0.0002799666
 OPT| Convergence limit for RMS gradient                            0.0003000000
 OPT| RMS gradient is converged                                              YES
 OPT| **************************************************************************
 OPT| Estimated peak process memory after this step [MiB]                   1798

 --------------------------
 OPTIMIZATION STEP:     76
 --------------------------

 Number of electrons:                                                        408
 Number of occupied orbitals:                                                204
 Number of molecular orbitals:                                               204

 Number of orbital functions:                                                314
 Number of independent orbital functions:                                    314

 Extrapolation method: ASPC


 SCF WAVEFUNCTION OPTIMIZATION

  ----------------------------------- OT ---------------------------------------
  Minimizer      : DIIS                : direct inversion
                                         in the iterative subspace
                                         using   7 DIIS vectors
                                         safer DIIS on
  Preconditioner : FULL_SINGLE_INVERSE : inversion of 
                                         H + eS - 2*(Sc)(c^T*H*c+const)(Sc)^T
  Precond_solver : DEFAULT
  stepsize       :    0.08000000                  energy_gap     :    0.08000000
  eps_taylor     :   0.10000E-15                  max_taylor     :             4
  ----------------------------------- OT ---------------------------------------

  Step     Update method      Time    Convergence         Total energy    Change
  ------------------------------------------------------------------------------
     1 OT DIIS     0.80E-01    4.8     0.00007292      -902.8179880291 -9.03E+02
     2 OT DIIS     0.80E-01    6.0     0.00004124      -902.8180069038 -1.89E-05
     3 OT DIIS     0.80E-01    6.0     0.00002958      -902.8180128854 -5.98E-06
     4 OT DIIS     0.80E-01    6.0     0.00001086      -902.8180158432 -2.96E-06
     5 OT DIIS     0.80E-01    6.0     0.00000519      -902.8180162844 -4.41E-07

  *** SCF run converged in     5 steps ***


  Electronic density on regular grids:       -407.9999937908        0.0000062092
  Core density on regular grids:              407.9999999753       -0.0000000247
  Total charge density on r-space grids:        0.0000061845
  Total charge density g-space grids:           0.0000061845

  Overlap energy of the core charge distribution:               0.00000006298938
  Self energy of the core charge distribution:              -2342.23014539452743
  Core Hamiltonian energy:                                    682.83119140790893
  Hartree energy:                                             971.47845542052210
  Exchange-correlation energy:                               -214.89751778129062

  Total energy:                                              -902.81801628439757

 ENERGY| Total FORCE_EVAL ( QS ) energy [hartree]           -902.818016385384794

 OPT| **************************************************************************
 OPT| Step number                                                             76
 OPT| Optimization method                                                  LBFGS
 OPT| Total energy [hartree]                                     -902.8180163854
 OPT| Effective energy change [hartree]                            -0.0000667605
 OPT| Decrease in energy                                                     YES
 OPT| Used time [s]                                                       37.765
 OPT|
 OPT| Maximum step size                                             0.0416996229
 OPT| Convergence limit for maximum step size                       0.0030000000
 OPT| Maximum step size is converged                                          NO
 OPT|
 OPT| RMS step size                                                 0.0051213562
 OPT| Convergence limit for RMS step size                           0.0015000000
 OPT| RMS step size is converged                                              NO
 OPT|
 OPT| Maximum gradient                                              0.0019893003
 OPT| Convergence limit for maximum gradient                        0.0010000000
 OPT| Maximum gradient is converged                                           NO
 OPT|
 OPT| RMS gradient                                                  0.0004585116
 OPT| Convergence limit for RMS gradient                            0.0003000000
 OPT| RMS gradient is converged                                               NO
 OPT| **************************************************************************
 OPT| Estimated peak process memory after this step [MiB]                   1798

 --------------------------
 OPTIMIZATION STEP:     77
 --------------------------

 Number of electrons:                                                        408
 Number of occupied orbitals:                                                204
 Number of molecular orbitals:                                               204

 Number of orbital functions:                                                314
 Number of independent orbital functions:                                    314

 Extrapolation method: ASPC


 SCF WAVEFUNCTION OPTIMIZATION

  ----------------------------------- OT ---------------------------------------
  Minimizer      : DIIS                : direct inversion
                                         in the iterative subspace
                                         using   7 DIIS vectors
                                         safer DIIS on
  Preconditioner : FULL_SINGLE_INVERSE : inversion of 
                                         H + eS - 2*(Sc)(c^T*H*c+const)(Sc)^T
  Precond_solver : DEFAULT
  stepsize       :    0.08000000                  energy_gap     :    0.08000000
  eps_taylor     :   0.10000E-15                  max_taylor     :             4
  ----------------------------------- OT ---------------------------------------

  Step     Update method      Time    Convergence         Total energy    Change
  ------------------------------------------------------------------------------
     1 OT DIIS     0.80E-01    4.8     0.00026455      -902.8176606290 -9.03E+02
     2 OT DIIS     0.80E-01    6.0     0.00015352      -902.8179293505 -2.69E-04
     3 OT DIIS     0.80E-01    6.0     0.00008840      -902.8180468268 -1.17E-04
     4 OT DIIS     0.80E-01    6.0     0.00003176      -902.8180786349 -3.18E-05
     5 OT DIIS     0.80E-01    6.0     0.00001485      -902.8180823327 -3.70E-06
     6 OT DIIS     0.80E-01    6.0     0.00000740      -902.8180831196 -7.87E-07

  *** SCF run converged in     6 steps ***


  Electronic density on regular grids:       -407.9999938041        0.0000061959
  Core density on regular grids:              407.9999999753       -0.0000000247
  Total charge density on r-space grids:        0.0000061711
  Total charge density g-space grids:           0.0000061711

  Overlap energy of the core charge distribution:               0.00000006311383
  Self energy of the core charge distribution:              -2342.23014539452743
  Core Hamiltonian energy:                                    682.83332922888292
  Hartree energy:                                             971.47713121612833
  Exchange-correlation energy:                               -214.89839823315410

  Total energy:                                              -902.81808311955626

 ENERGY| Total FORCE_EVAL ( QS ) energy [hartree]           -902.818083321872905

 OPT| **************************************************************************
 OPT| Step number                                                             77
 OPT| Optimization method                                                  LBFGS
 OPT| Total energy [hartree]                                     -902.8180833219
 OPT| Effective energy change [hartree]                            -0.0000669365
 OPT| Decrease in energy                                                     YES
 OPT| Used time [s]                                                       43.801
 OPT|
 OPT| Maximum step size                                             0.0083763008
 OPT| Convergence limit for maximum step size                       0.0030000000
 OPT| Maximum step size is converged                                          NO
 OPT|
 OPT| RMS step size                                                 0.0013327411
 OPT| Convergence limit for RMS step size                           0.0015000000
 OPT| RMS step size is converged                                             YES
 OPT|
 OPT| Maximum gradient                                              0.0020023906
 OPT| Convergence limit for maximum gradient                        0.0010000000
 OPT| Maximum gradient is converged                                           NO
 OPT|
 OPT| RMS gradient                                                  0.0004280755
 OPT| Convergence limit for RMS gradient                            0.0003000000
 OPT| RMS gradient is converged                                               NO
 OPT| **************************************************************************
 OPT| Estimated peak process memory after this step [MiB]                   1798

 --------------------------
 OPTIMIZATION STEP:     78
 --------------------------

 Number of electrons:                                                        408
 Number of occupied orbitals:                                                204
 Number of molecular orbitals:                                               204

 Number of orbital functions:                                                314
 Number of independent orbital functions:                                    314

 Extrapolation method: ASPC


 SCF WAVEFUNCTION OPTIMIZATION

  ----------------------------------- OT ---------------------------------------
  Minimizer      : DIIS                : direct inversion
                                         in the iterative subspace
                                         using   7 DIIS vectors
                                         safer DIIS on
  Preconditioner : FULL_SINGLE_INVERSE : inversion of 
                                         H + eS - 2*(Sc)(c^T*H*c+const)(Sc)^T
  Precond_solver : DEFAULT
  stepsize       :    0.08000000                  energy_gap     :    0.08000000
  eps_taylor     :   0.10000E-15                  max_taylor     :             4
  ----------------------------------- OT ---------------------------------------

  Step     Update method      Time    Convergence         Total energy    Change
  ------------------------------------------------------------------------------
     1 OT DIIS     0.80E-01    4.8     0.00021077      -902.8178877743 -9.03E+02
     2 OT DIIS     0.80E-01    6.0     0.00011934      -902.8180546273 -1.67E-04
     3 OT DIIS     0.80E-01    6.0     0.00007032      -902.8181208634 -6.62E-05
     4 OT DIIS     0.80E-01    6.0     0.00002468      -902.8181412623 -2.04E-05
     5 OT DIIS     0.80E-01    6.0     0.00001117      -902.8181436254 -2.36E-06
     6 OT DIIS     0.80E-01    6.0     0.00000508      -902.8181441203 -4.95E-07

  *** SCF run converged in     6 steps ***


  Electronic density on regular grids:       -407.9999938143        0.0000061857
  Core density on regular grids:              407.9999999752       -0.0000000248
  Total charge density on r-space grids:        0.0000061609
  Total charge density g-space grids:           0.0000061609

  Overlap energy of the core charge distribution:               0.00000006301033
  Self energy of the core charge distribution:              -2342.23014539452743
  Core Hamiltonian energy:                                    682.83040021436648
  Hartree energy:                                             971.47913253318745
  Exchange-correlation energy:                               -214.89753153636318

  Total energy:                                              -902.81814412032656

 ENERGY| Total FORCE_EVAL ( QS ) energy [hartree]           -902.818144228942401

 OPT| **************************************************************************
 OPT| Step number                                                             78
 OPT| Optimization method                                                  LBFGS
 OPT| Total energy [hartree]                                     -902.8181442289
 OPT| Effective energy change [hartree]                            -0.0000609071
 OPT| Decrease in energy                                                     YES
 OPT| Used time [s]                                                       43.795
 OPT|
 OPT| Maximum step size                                             0.0057897268
 OPT| Convergence limit for maximum step size                       0.0030000000
 OPT| Maximum step size is converged                                          NO
 OPT|
 OPT| RMS step size                                                 0.0011373550
 OPT| Convergence limit for RMS step size                           0.0015000000
 OPT| RMS step size is converged                                             YES
 OPT|
 OPT| Maximum gradient                                              0.0011816059
 OPT| Convergence limit for maximum gradient                        0.0010000000
 OPT| Maximum gradient is converged                                           NO
 OPT|
 OPT| RMS gradient                                                  0.0002564287
 OPT| Convergence limit for RMS gradient                            0.0003000000
 OPT| RMS gradient is converged                                              YES
 OPT| **************************************************************************
 OPT| Estimated peak process memory after this step [MiB]                   1798

 --------------------------
 OPTIMIZATION STEP:     79
 --------------------------

 Number of electrons:                                                        408
 Number of occupied orbitals:                                                204
 Number of molecular orbitals:                                               204

 Number of orbital functions:                                                314
 Number of independent orbital functions:                                    314

 Extrapolation method: ASPC


 SCF WAVEFUNCTION OPTIMIZATION

  ----------------------------------- OT ---------------------------------------
  Minimizer      : DIIS                : direct inversion
                                         in the iterative subspace
                                         using   7 DIIS vectors
                                         safer DIIS on
  Preconditioner : FULL_SINGLE_INVERSE : inversion of 
                                         H + eS - 2*(Sc)(c^T*H*c+const)(Sc)^T
  Precond_solver : DEFAULT
  stepsize       :    0.08000000                  energy_gap     :    0.08000000
  eps_taylor     :   0.10000E-15                  max_taylor     :             4
  ----------------------------------- OT ---------------------------------------

  Step     Update method      Time    Convergence         Total energy    Change
  ------------------------------------------------------------------------------
     1 OT DIIS     0.80E-01    4.8     0.00007936      -902.8181614800 -9.03E+02
     2 OT DIIS     0.80E-01    6.0     0.00004451      -902.8181850909 -2.36E-05
     3 OT DIIS     0.80E-01    6.0     0.00002626      -902.8181945203 -9.43E-06
     4 OT DIIS     0.80E-01    6.0     0.00001076      -902.8181974827 -2.96E-06
     5 OT DIIS     0.80E-01    6.0     0.00000523      -902.8181979924 -5.10E-07

  *** SCF run converged in     5 steps ***


  Electronic density on regular grids:       -407.9999938154        0.0000061846
  Core density on regular grids:              407.9999999751       -0.0000000249
  Total charge density on r-space grids:        0.0000061597
  Total charge density g-space grids:           0.0000061597

  Overlap energy of the core charge distribution:               0.00000006315126
  Self energy of the core charge distribution:              -2342.23014539452743
  Core Hamiltonian energy:                                    682.83285689207742
  Hartree energy:                                             971.47686876006071
  Exchange-correlation energy:                               -214.89777831317264

  Total energy:                                              -902.81819799241066

 ENERGY| Total FORCE_EVAL ( QS ) energy [hartree]           -902.818198095894786

 OPT| **************************************************************************
 OPT| Step number                                                             79
 OPT| Optimization method                                                  LBFGS
 OPT| Total energy [hartree]                                     -902.8181980959
 OPT| Effective energy change [hartree]                            -0.0000538670
 OPT| Decrease in energy                                                     YES
 OPT| Used time [s]                                                       37.765
 OPT|
 OPT| Maximum step size                                             0.0287080486
 OPT| Convergence limit for maximum step size                       0.0030000000
 OPT| Maximum step size is converged                                          NO
 OPT|
 OPT| RMS step size                                                 0.0029604615
 OPT| Convergence limit for RMS step size                           0.0015000000
 OPT| RMS step size is converged                                              NO
 OPT|
 OPT| Maximum gradient                                              0.0018370825
 OPT| Convergence limit for maximum gradient                        0.0010000000
 OPT| Maximum gradient is converged                                           NO
 OPT|
 OPT| RMS gradient                                                  0.0003093668
 OPT| Convergence limit for RMS gradient                            0.0003000000
 OPT| RMS gradient is converged                                               NO
 OPT| **************************************************************************
 OPT| Estimated peak process memory after this step [MiB]                   1798

 --------------------------
 OPTIMIZATION STEP:     80
 --------------------------

 Number of electrons:                                                        408
 Number of occupied orbitals:                                                204
 Number of molecular orbitals:                                               204

 Number of orbital functions:                                                314
 Number of independent orbital functions:                                    314

 Extrapolation method: ASPC


 SCF WAVEFUNCTION OPTIMIZATION

  ----------------------------------- OT ---------------------------------------
  Minimizer      : DIIS                : direct inversion
                                         in the iterative subspace
                                         using   7 DIIS vectors
                                         safer DIIS on
  Preconditioner : FULL_SINGLE_INVERSE : inversion of 
                                         H + eS - 2*(Sc)(c^T*H*c+const)(Sc)^T
  Precond_solver : DEFAULT
  stepsize       :    0.08000000                  energy_gap     :    0.08000000
  eps_taylor     :   0.10000E-15                  max_taylor     :             4
  ----------------------------------- OT ---------------------------------------

  Step     Update method      Time    Convergence         Total energy    Change
  ------------------------------------------------------------------------------
     1 OT DIIS     0.80E-01    4.8     0.00015025      -902.8181025111 -9.03E+02
     2 OT DIIS     0.80E-01    6.0     0.00008825      -902.8181891847 -8.67E-05
     3 OT DIIS     0.80E-01    6.0     0.00005373      -902.8182273336 -3.81E-05
     4 OT DIIS     0.80E-01    6.0     0.00001921      -902.8182390422 -1.17E-05
     5 OT DIIS     0.80E-01    6.0     0.00000799      -902.8182404989 -1.46E-06

  *** SCF run converged in     5 steps ***


  Electronic density on regular grids:       -407.9999938307        0.0000061693
  Core density on regular grids:              407.9999999750       -0.0000000250
  Total charge density on r-space grids:        0.0000061444
  Total charge density g-space grids:           0.0000061444

  Overlap energy of the core charge distribution:               0.00000006330702
  Self energy of the core charge distribution:              -2342.23014539452743
  Core Hamiltonian energy:                                    682.82617735446354
  Hartree energy:                                             971.48178732110716
  Exchange-correlation energy:                               -214.89605984325209

  Total energy:                                              -902.81824049890156

 ENERGY| Total FORCE_EVAL ( QS ) energy [hartree]           -902.818240751420376

 OPT| **************************************************************************
 OPT| Step number                                                             80
 OPT| Optimization method                                                  LBFGS
 OPT| Total energy [hartree]                                     -902.8182407514
 OPT| Effective energy change [hartree]                            -0.0000426555
 OPT| Decrease in energy                                                     YES
 OPT| Used time [s]                                                       37.774
 OPT|
 OPT| Maximum step size                                             0.0207475261
 OPT| Convergence limit for maximum step size                       0.0030000000
 OPT| Maximum step size is converged                                          NO
 OPT|
 OPT| RMS step size                                                 0.0022309646
 OPT| Convergence limit for RMS step size                           0.0015000000
 OPT| RMS step size is converged                                              NO
 OPT|
 OPT| Maximum gradient                                              0.0014816944
 OPT| Convergence limit for maximum gradient                        0.0010000000
 OPT| Maximum gradient is converged                                           NO
 OPT|
 OPT| RMS gradient                                                  0.0003503405
 OPT| Convergence limit for RMS gradient                            0.0003000000
 OPT| RMS gradient is converged                                               NO
 OPT| **************************************************************************
 OPT| Estimated peak process memory after this step [MiB]                   1798

 --------------------------
 OPTIMIZATION STEP:     81
 --------------------------

 Number of electrons:                                                        408
 Number of occupied orbitals:                                                204
 Number of molecular orbitals:                                               204

 Number of orbital functions:                                                314
 Number of independent orbital functions:                                    314

 Extrapolation method: ASPC


 SCF WAVEFUNCTION OPTIMIZATION

  ----------------------------------- OT ---------------------------------------
  Minimizer      : DIIS                : direct inversion
                                         in the iterative subspace
                                         using   7 DIIS vectors
                                         safer DIIS on
  Preconditioner : FULL_SINGLE_INVERSE : inversion of 
                                         H + eS - 2*(Sc)(c^T*H*c+const)(Sc)^T
  Precond_solver : DEFAULT
  stepsize       :    0.08000000                  energy_gap     :    0.08000000
  eps_taylor     :   0.10000E-15                  max_taylor     :             4
  ----------------------------------- OT ---------------------------------------

  Step     Update method      Time    Convergence         Total energy    Change
  ------------------------------------------------------------------------------
     1 OT DIIS     0.80E-01    4.8     0.00013416      -902.8181936500 -9.03E+02
     2 OT DIIS     0.80E-01    6.0     0.00007494      -902.8182592206 -6.56E-05
     3 OT DIIS     0.80E-01    6.0     0.00004903      -902.8182821641 -2.29E-05
     4 OT DIIS     0.80E-01    6.0     0.00001747      -902.8182911685 -9.00E-06
     5 OT DIIS     0.80E-01    6.0     0.00000738      -902.8182923801 -1.21E-06

  *** SCF run converged in     5 steps ***


  Electronic density on regular grids:       -407.9999938355        0.0000061645
  Core density on regular grids:              407.9999999750       -0.0000000250
  Total charge density on r-space grids:        0.0000061395
  Total charge density g-space grids:           0.0000061395

  Overlap energy of the core charge distribution:               0.00000006299913
  Self energy of the core charge distribution:              -2342.23014539452743
  Core Hamiltonian energy:                                    682.82554563429665
  Hartree energy:                                             971.48170104299561
  Exchange-correlation energy:                               -214.89539372591017

  Total energy:                                              -902.81829238014586

 ENERGY| Total FORCE_EVAL ( QS ) energy [hartree]           -902.818292587710516

 OPT| **************************************************************************
 OPT| Step number                                                             81
 OPT| Optimization method                                                  LBFGS
 OPT| Total energy [hartree]                                     -902.8182925877
 OPT| Effective energy change [hartree]                            -0.0000518363
 OPT| Decrease in energy                                                     YES
 OPT| Used time [s]                                                       37.781
 OPT|
 OPT| Maximum step size                                             0.0220404585
 OPT| Convergence limit for maximum step size                       0.0030000000
 OPT| Maximum step size is converged                                          NO
 OPT|
 OPT| RMS step size                                                 0.0019974125
 OPT| Convergence limit for RMS step size                           0.0015000000
 OPT| RMS step size is converged                                              NO
 OPT|
 OPT| Maximum gradient                                              0.0014334000
 OPT| Convergence limit for maximum gradient                        0.0010000000
 OPT| Maximum gradient is converged                                           NO
 OPT|
 OPT| RMS gradient                                                  0.0002866979
 OPT| Convergence limit for RMS gradient                            0.0003000000
 OPT| RMS gradient is converged                                              YES
 OPT| **************************************************************************
 OPT| Estimated peak process memory after this step [MiB]                   1798

 --------------------------
 OPTIMIZATION STEP:     82
 --------------------------

 Number of electrons:                                                        408
 Number of occupied orbitals:                                                204
 Number of molecular orbitals:                                               204

 Number of orbital functions:                                                314
 Number of independent orbital functions:                                    314

 Extrapolation method: ASPC


 SCF WAVEFUNCTION OPTIMIZATION

  ----------------------------------- OT ---------------------------------------
  Minimizer      : DIIS                : direct inversion
                                         in the iterative subspace
                                         using   7 DIIS vectors
                                         safer DIIS on
  Preconditioner : FULL_SINGLE_INVERSE : inversion of 
                                         H + eS - 2*(Sc)(c^T*H*c+const)(Sc)^T
  Precond_solver : DEFAULT
  stepsize       :    0.08000000                  energy_gap     :    0.08000000
  eps_taylor     :   0.10000E-15                  max_taylor     :             4
  ----------------------------------- OT ---------------------------------------

  Step     Update method      Time    Convergence         Total energy    Change
  ------------------------------------------------------------------------------
     1 OT DIIS     0.80E-01    4.8     0.00013634      -902.8182751350 -9.03E+02
     2 OT DIIS     0.80E-01    6.0     0.00008274      -902.8183474479 -7.23E-05
     3 OT DIIS     0.80E-01    6.0     0.00005625      -902.8183803513 -3.29E-05
     4 OT DIIS     0.80E-01    6.0     0.00001755      -902.8183916635 -1.13E-05
     5 OT DIIS     0.80E-01    6.0     0.00000773      -902.8183930030 -1.34E-06

  *** SCF run converged in     5 steps ***


  Electronic density on regular grids:       -407.9999938636        0.0000061364
  Core density on regular grids:              407.9999999750       -0.0000000250
  Total charge density on r-space grids:        0.0000061114
  Total charge density g-space grids:           0.0000061114

  Overlap energy of the core charge distribution:               0.00000006359472
  Self energy of the core charge distribution:              -2342.23014539452743
  Core Hamiltonian energy:                                    682.82740738843029
  Hartree energy:                                             971.47984488843451
  Exchange-correlation energy:                               -214.89549994894782

  Total energy:                                              -902.81839300301567

 ENERGY| Total FORCE_EVAL ( QS ) energy [hartree]           -902.818393236741031

 OPT| **************************************************************************
 OPT| Step number                                                             82
 OPT| Optimization method                                                  LBFGS
 OPT| Total energy [hartree]                                     -902.8183932367
 OPT| Effective energy change [hartree]                            -0.0001006490
 OPT| Decrease in energy                                                     YES
 OPT| Used time [s]                                                       37.764
 OPT|
 OPT| Maximum step size                                             0.0627976764
 OPT| Convergence limit for maximum step size                       0.0030000000
 OPT| Maximum step size is converged                                          NO
 OPT|
 OPT| RMS step size                                                 0.0054763882
 OPT| Convergence limit for RMS step size                           0.0015000000
 OPT| RMS step size is converged                                              NO
 OPT|
 OPT| Maximum gradient                                              0.0013437286
 OPT| Convergence limit for maximum gradient                        0.0010000000
 OPT| Maximum gradient is converged                                           NO
 OPT|
 OPT| RMS gradient                                                  0.0003422031
 OPT| Convergence limit for RMS gradient                            0.0003000000
 OPT| RMS gradient is converged                                               NO
 OPT| **************************************************************************
 OPT| Estimated peak process memory after this step [MiB]                   1798

 --------------------------
 OPTIMIZATION STEP:     83
 --------------------------

 Number of electrons:                                                        408
 Number of occupied orbitals:                                                204
 Number of molecular orbitals:                                               204

 Number of orbital functions:                                                314
 Number of independent orbital functions:                                    314

 Extrapolation method: ASPC


 SCF WAVEFUNCTION OPTIMIZATION

  ----------------------------------- OT ---------------------------------------
  Minimizer      : DIIS                : direct inversion
                                         in the iterative subspace
                                         using   7 DIIS vectors
                                         safer DIIS on
  Preconditioner : FULL_SINGLE_INVERSE : inversion of 
                                         H + eS - 2*(Sc)(c^T*H*c+const)(Sc)^T
  Precond_solver : DEFAULT
  stepsize       :    0.08000000                  energy_gap     :    0.08000000
  eps_taylor     :   0.10000E-15                  max_taylor     :             4
  ----------------------------------- OT ---------------------------------------

  Step     Update method      Time    Convergence         Total energy    Change
  ------------------------------------------------------------------------------
     1 OT DIIS     0.80E-01    4.8     0.00009104      -902.8184357670 -9.03E+02
     2 OT DIIS     0.80E-01    6.0     0.00005119      -902.8184638983 -2.81E-05
     3 OT DIIS     0.80E-01    6.0     0.00003614      -902.8184720523 -8.15E-06
     4 OT DIIS     0.80E-01    6.0     0.00001377      -902.8184765959 -4.54E-06
     5 OT DIIS     0.80E-01    6.0     0.00000615      -902.8184773201 -7.24E-07

  *** SCF run converged in     5 steps ***


  Electronic density on regular grids:       -407.9999939359        0.0000060641
  Core density on regular grids:              407.9999999751       -0.0000000249
  Total charge density on r-space grids:        0.0000060392
  Total charge density g-space grids:           0.0000060392

  Overlap energy of the core charge distribution:               0.00000006174520
  Self energy of the core charge distribution:              -2342.23014539452743
  Core Hamiltonian energy:                                    682.82265041639835
  Hartree energy:                                             971.48131634709750
  Exchange-correlation energy:                               -214.89229875077575

  Total energy:                                              -902.81847732006213

 ENERGY| Total FORCE_EVAL ( QS ) energy [hartree]           -902.818477468823403

 OPT| **************************************************************************
 OPT| Step number                                                             83
 OPT| Optimization method                                                  LBFGS
 OPT| Total energy [hartree]                                     -902.8184774688
 OPT| Effective energy change [hartree]                            -0.0000842321
 OPT| Decrease in energy                                                     YES
 OPT| Used time [s]                                                       37.750
 OPT|
 OPT| Maximum step size                                             0.0927986181
 OPT| Convergence limit for maximum step size                       0.0030000000
 OPT| Maximum step size is converged                                          NO
 OPT|
 OPT| RMS step size                                                 0.0079291312
 OPT| Convergence limit for RMS step size                           0.0015000000
 OPT| RMS step size is converged                                              NO
 OPT|
 OPT| Maximum gradient                                              0.0033260795
 OPT| Convergence limit for maximum gradient                        0.0010000000
 OPT| Maximum gradient is converged                                           NO
 OPT|
 OPT| RMS gradient                                                  0.0005743341
 OPT| Convergence limit for RMS gradient                            0.0003000000
 OPT| RMS gradient is converged                                               NO
 OPT| **************************************************************************
 OPT| Estimated peak process memory after this step [MiB]                   1798

 --------------------------
 OPTIMIZATION STEP:     84
 --------------------------

 Number of electrons:                                                        408
 Number of occupied orbitals:                                                204
 Number of molecular orbitals:                                               204

 Number of orbital functions:                                                314
 Number of independent orbital functions:                                    314

 Extrapolation method: ASPC


 SCF WAVEFUNCTION OPTIMIZATION

  ----------------------------------- OT ---------------------------------------
  Minimizer      : DIIS                : direct inversion
                                         in the iterative subspace
                                         using   7 DIIS vectors
                                         safer DIIS on
  Preconditioner : FULL_SINGLE_INVERSE : inversion of 
                                         H + eS - 2*(Sc)(c^T*H*c+const)(Sc)^T
  Precond_solver : DEFAULT
  stepsize       :    0.08000000                  energy_gap     :    0.08000000
  eps_taylor     :   0.10000E-15                  max_taylor     :             4
  ----------------------------------- OT ---------------------------------------

  Step     Update method      Time    Convergence         Total energy    Change
  ------------------------------------------------------------------------------
     1 OT DIIS     0.80E-01    4.8     0.00014621      -902.8184497697 -9.03E+02
     2 OT DIIS     0.80E-01    6.0     0.00008641      -902.8185308575 -8.11E-05
     3 OT DIIS     0.80E-01    6.0     0.00005972      -902.8185643618 -3.35E-05
     4 OT DIIS     0.80E-01    6.0     0.00002336      -902.8185773675 -1.30E-05
     5 OT DIIS     0.80E-01    6.0     0.00000992      -902.8185794552 -2.09E-06

  *** SCF run converged in     5 steps ***


  Electronic density on regular grids:       -407.9999939863        0.0000060137
  Core density on regular grids:              407.9999999751       -0.0000000249
  Total charge density on r-space grids:        0.0000059888
  Total charge density g-space grids:           0.0000059888

  Overlap energy of the core charge distribution:               0.00000006190430
  Self energy of the core charge distribution:              -2342.23014539452743
  Core Hamiltonian energy:                                    682.82649734588961
  Hartree energy:                                             971.47787047236534
  Exchange-correlation energy:                               -214.89280194079149

  Total energy:                                              -902.81857945515981

 ENERGY| Total FORCE_EVAL ( QS ) energy [hartree]           -902.818579867519475

 OPT| **************************************************************************
 OPT| Step number                                                             84
 OPT| Optimization method                                                  LBFGS
 OPT| Total energy [hartree]                                     -902.8185798675
 OPT| Effective energy change [hartree]                            -0.0001023987
 OPT| Decrease in energy                                                     YES
 OPT| Used time [s]                                                       37.789
 OPT|
 OPT| Maximum step size                                             0.0686350427
 OPT| Convergence limit for maximum step size                       0.0030000000
 OPT| Maximum step size is converged                                          NO
 OPT|
 OPT| RMS step size                                                 0.0056914156
 OPT| Convergence limit for RMS step size                           0.0015000000
 OPT| RMS step size is converged                                              NO
 OPT|
 OPT| Maximum gradient                                              0.0032533523
 OPT| Convergence limit for maximum gradient                        0.0010000000
 OPT| Maximum gradient is converged                                           NO
 OPT|
 OPT| RMS gradient                                                  0.0005383685
 OPT| Convergence limit for RMS gradient                            0.0003000000
 OPT| RMS gradient is converged                                               NO
 OPT| **************************************************************************
 OPT| Estimated peak process memory after this step [MiB]                   1798

 --------------------------
 OPTIMIZATION STEP:     85
 --------------------------

 Number of electrons:                                                        408
 Number of occupied orbitals:                                                204
 Number of molecular orbitals:                                               204

 Number of orbital functions:                                                314
 Number of independent orbital functions:                                    314

 Extrapolation method: ASPC


 SCF WAVEFUNCTION OPTIMIZATION

  ----------------------------------- OT ---------------------------------------
  Minimizer      : DIIS                : direct inversion
                                         in the iterative subspace
                                         using   7 DIIS vectors
                                         safer DIIS on
  Preconditioner : FULL_SINGLE_INVERSE : inversion of 
                                         H + eS - 2*(Sc)(c^T*H*c+const)(Sc)^T
  Precond_solver : DEFAULT
  stepsize       :    0.08000000                  energy_gap     :    0.08000000
  eps_taylor     :   0.10000E-15                  max_taylor     :             4
  ----------------------------------- OT ---------------------------------------

  Step     Update method      Time    Convergence         Total energy    Change
  ------------------------------------------------------------------------------
     1 OT DIIS     0.80E-01    4.8     0.00081150      -902.8139348128 -9.03E+02
     2 OT DIIS     0.80E-01    6.0     0.00051233      -902.8166646643 -2.73E-03
     3 OT DIIS     0.80E-01    6.0     0.00016718      -902.8184637714 -1.80E-03
     4 OT DIIS     0.80E-01    6.0     0.00007539      -902.8185456444 -8.19E-05
     5 OT DIIS     0.80E-01    6.0     0.00003526      -902.8185644531 -1.88E-05
     6 OT DIIS     0.80E-01    6.0     0.00001810      -902.8185694960 -5.04E-06
     7 OT DIIS     0.80E-01    6.0     0.00000732      -902.8185707137 -1.22E-06

  *** SCF run converged in     7 steps ***


  Electronic density on regular grids:       -407.9999941488        0.0000058512
  Core density on regular grids:              407.9999999752       -0.0000000248
  Total charge density on r-space grids:        0.0000058264
  Total charge density g-space grids:           0.0000058264

  Overlap energy of the core charge distribution:               0.00000006039173
  Self energy of the core charge distribution:              -2342.23014539452743
  Core Hamiltonian energy:                                    682.81827672231043
  Hartree energy:                                             971.48065195373908
  Exchange-correlation energy:                               -214.88735405559822

  Total energy:                                              -902.81857071368427

 ENERGY| Total FORCE_EVAL ( QS ) energy [hartree]           -902.818570961461660

 Number of electrons:                                                        408
 Number of occupied orbitals:                                                204
 Number of molecular orbitals:                                               204

 Number of orbital functions:                                                314
 Number of independent orbital functions:                                    314

 Extrapolation method: ASPC


 SCF WAVEFUNCTION OPTIMIZATION

  ----------------------------------- OT ---------------------------------------
  Minimizer      : DIIS                : direct inversion
                                         in the iterative subspace
                                         using   7 DIIS vectors
                                         safer DIIS on
  Preconditioner : FULL_SINGLE_INVERSE : inversion of 
                                         H + eS - 2*(Sc)(c^T*H*c+const)(Sc)^T
  Precond_solver : DEFAULT
  stepsize       :    0.08000000                  energy_gap     :    0.08000000
  eps_taylor     :   0.10000E-15                  max_taylor     :             4
  ----------------------------------- OT ---------------------------------------

  Step     Update method      Time    Convergence         Total energy    Change
  ------------------------------------------------------------------------------
     1 OT DIIS     0.80E-01    4.8     0.00207256      -902.7890238824 -9.03E+02
     2 OT DIIS     0.80E-01    6.0     0.00129823      -902.8066965838 -1.77E-02
     3 OT DIIS     0.80E-01    6.4     0.00046125      -902.8179027841 -1.12E-02
     4 OT DIIS     0.80E-01    6.0     0.00017242      -902.8186507037 -7.48E-04
     5 OT DIIS     0.80E-01    6.0     0.00008957      -902.8187489312 -9.82E-05
     6 OT DIIS     0.80E-01    6.0     0.00004350      -902.8187859183 -3.70E-05
     7 OT DIIS     0.80E-01    6.0     0.00002236      -902.8187921871 -6.27E-06
     8 OT DIIS     0.80E-01    6.0     0.00000915      -902.8187940484 -1.86E-06

  *** SCF run converged in     8 steps ***


  Electronic density on regular grids:       -407.9999940788        0.0000059212
  Core density on regular grids:              407.9999999751       -0.0000000249
  Total charge density on r-space grids:        0.0000058963
  Total charge density g-space grids:           0.0000058963

  Overlap energy of the core charge distribution:               0.00000006148199
  Self energy of the core charge distribution:              -2342.23014539452743
  Core Hamiltonian energy:                                    682.82675668452066
  Hartree energy:                                             971.47620952304192
  Exchange-correlation energy:                               -214.89161492290478

  Total energy:                                              -902.81879404838776

 ENERGY| Total FORCE_EVAL ( QS ) energy [hartree]           -902.818794376655887

 OPT| **************************************************************************
 OPT| Step number                                                             85
 OPT| Optimization method                                                  LBFGS
 OPT| Total energy [hartree]                                     -902.8187943767
 OPT| Effective energy change [hartree]                            -0.0002145091
 OPT| Decrease in energy                                                     YES
 OPT| Used time [s]                                                      106.071
 OPT|
 OPT| Maximum step size                                             0.1702520863
 OPT| Convergence limit for maximum step size                       0.0030000000
 OPT| Maximum step size is converged                                          NO
 OPT|
 OPT| RMS step size                                                 0.0139257572
 OPT| Convergence limit for RMS step size                           0.0015000000
 OPT| RMS step size is converged                                              NO
 OPT|
 OPT| Maximum gradient                                              0.0076610673
 OPT| Convergence limit for maximum gradient                        0.0010000000
 OPT| Maximum gradient is converged                                           NO
 OPT|
 OPT| RMS gradient                                                  0.0008370596
 OPT| Convergence limit for RMS gradient                            0.0003000000
 OPT| RMS gradient is converged                                               NO
 OPT| **************************************************************************
 OPT| Estimated peak process memory after this step [MiB]                   1798

 --------------------------
 OPTIMIZATION STEP:     86
 --------------------------

 Number of electrons:                                                        408
 Number of occupied orbitals:                                                204
 Number of molecular orbitals:                                               204

 Number of orbital functions:                                                314
 Number of independent orbital functions:                                    314

 Extrapolation method: ASPC


 SCF WAVEFUNCTION OPTIMIZATION

  ----------------------------------- OT ---------------------------------------
  Minimizer      : DIIS                : direct inversion
                                         in the iterative subspace
                                         using   7 DIIS vectors
                                         safer DIIS on
  Preconditioner : FULL_SINGLE_INVERSE : inversion of 
                                         H + eS - 2*(Sc)(c^T*H*c+const)(Sc)^T
  Precond_solver : DEFAULT
  stepsize       :    0.08000000                  energy_gap     :    0.08000000
  eps_taylor     :   0.10000E-15                  max_taylor     :             4
  ----------------------------------- OT ---------------------------------------

  Step     Update method      Time    Convergence         Total energy    Change
  ------------------------------------------------------------------------------
     1 OT DIIS     0.80E-01    4.8     0.00254030      -902.7739678010 -9.03E+02
     2 OT DIIS     0.80E-01    6.0     0.00160169      -902.8006906584 -2.67E-02
     3 OT DIIS     0.80E-01    6.0     0.00050770      -902.8181336867 -1.74E-02
     4 OT DIIS     0.80E-01    6.0     0.00019787      -902.8189144431 -7.81E-04
     5 OT DIIS     0.80E-01    6.0     0.00010004      -902.8190543907 -1.40E-04
     6 OT DIIS     0.80E-01    6.0     0.00004118      -902.8191041006 -4.97E-05
     7 OT DIIS     0.80E-01    6.0     0.00002228      -902.8191121814 -8.08E-06
     8 OT DIIS     0.80E-01    6.0     0.00001023      -902.8191139130 -1.73E-06
     9 OT DIIS     0.80E-01    6.0     0.00000533      -902.8191143139 -4.01E-07

  *** SCF run converged in     9 steps ***


  Electronic density on regular grids:       -407.9999942049        0.0000057951
  Core density on regular grids:              407.9999999751       -0.0000000249
  Total charge density on r-space grids:        0.0000057702
  Total charge density g-space grids:           0.0000057702

  Overlap energy of the core charge distribution:               0.00000006313751
  Self energy of the core charge distribution:              -2342.23014539452743
  Core Hamiltonian energy:                                    682.84033708911886
  Hartree energy:                                             971.46660765020829
  Exchange-correlation energy:                               -214.89591372183628

  Total energy:                                              -902.81911431389904

 ENERGY| Total FORCE_EVAL ( QS ) energy [hartree]           -902.819114434288281

 OPT| **************************************************************************
 OPT| Step number                                                             86
 OPT| Optimization method                                                  LBFGS
 OPT| Total energy [hartree]                                     -902.8191144343
 OPT| Effective energy change [hartree]                            -0.0003200576
 OPT| Decrease in energy                                                     YES
 OPT| Used time [s]                                                       61.953
 OPT|
 OPT| Maximum step size                                             0.1725548344
 OPT| Convergence limit for maximum step size                       0.0030000000
 OPT| Maximum step size is converged                                          NO
 OPT|
 OPT| RMS step size                                                 0.0140984000
 OPT| Convergence limit for RMS step size                           0.0015000000
 OPT| RMS step size is converged                                              NO
 OPT|
 OPT| Maximum gradient                                              0.0069508924
 OPT| Convergence limit for maximum gradient                        0.0010000000
 OPT| Maximum gradient is converged                                           NO
 OPT|
 OPT| RMS gradient                                                  0.0007711454
 OPT| Convergence limit for RMS gradient                            0.0003000000
 OPT| RMS gradient is converged                                               NO
 OPT| **************************************************************************
 OPT| Estimated peak process memory after this step [MiB]                   1798

 --------------------------
 OPTIMIZATION STEP:     87
 --------------------------

 Number of electrons:                                                        408
 Number of occupied orbitals:                                                204
 Number of molecular orbitals:                                               204

 Number of orbital functions:                                                314
 Number of independent orbital functions:                                    314

 Extrapolation method: ASPC


 SCF WAVEFUNCTION OPTIMIZATION

  ----------------------------------- OT ---------------------------------------
  Minimizer      : DIIS                : direct inversion
                                         in the iterative subspace
                                         using   7 DIIS vectors
                                         safer DIIS on
  Preconditioner : FULL_SINGLE_INVERSE : inversion of 
                                         H + eS - 2*(Sc)(c^T*H*c+const)(Sc)^T
  Precond_solver : DEFAULT
  stepsize       :    0.08000000                  energy_gap     :    0.08000000
  eps_taylor     :   0.10000E-15                  max_taylor     :             4
  ----------------------------------- OT ---------------------------------------

  Step     Update method      Time    Convergence         Total energy    Change
  ------------------------------------------------------------------------------
     1 OT DIIS     0.80E-01    4.8     0.00159718      -902.8021571313 -9.03E+02
     2 OT DIIS     0.80E-01    6.0     0.00097777      -902.8123376112 -1.02E-02
     3 OT DIIS     0.80E-01    6.0     0.00047116      -902.8179487112 -5.61E-03
     4 OT DIIS     0.80E-01    6.0     0.00016491      -902.8190485225 -1.10E-03
     5 OT DIIS     0.80E-01    6.0     0.00006896      -902.8191333577 -8.48E-05
     6 OT DIIS     0.80E-01    6.0     0.00003262      -902.8191574150 -2.41E-05
     7 OT DIIS     0.80E-01    6.0     0.00001642      -902.8191617631 -4.35E-06
     8 OT DIIS     0.80E-01    6.0     0.00000739      -902.8191627958 -1.03E-06

  *** SCF run converged in     8 steps ***


  Electronic density on regular grids:       -407.9999942697        0.0000057303
  Core density on regular grids:              407.9999999753       -0.0000000247
  Total charge density on r-space grids:        0.0000057055
  Total charge density g-space grids:           0.0000057055

  Overlap energy of the core charge distribution:               0.00000006167356
  Self energy of the core charge distribution:              -2342.23014539452743
  Core Hamiltonian energy:                                    682.82789830467993
  Hartree energy:                                             971.47394290424074
  Exchange-correlation energy:                               -214.89085867186802

  Total energy:                                              -902.81916279580116

 ENERGY| Total FORCE_EVAL ( QS ) energy [hartree]           -902.819162999969762

 Number of electrons:                                                        408
 Number of occupied orbitals:                                                204
 Number of molecular orbitals:                                               204

 Number of orbital functions:                                                314
 Number of independent orbital functions:                                    314

 Extrapolation method: ASPC


 SCF WAVEFUNCTION OPTIMIZATION

  ----------------------------------- OT ---------------------------------------
  Minimizer      : DIIS                : direct inversion
                                         in the iterative subspace
                                         using   7 DIIS vectors
                                         safer DIIS on
  Preconditioner : FULL_SINGLE_INVERSE : inversion of 
                                         H + eS - 2*(Sc)(c^T*H*c+const)(Sc)^T
  Precond_solver : DEFAULT
  stepsize       :    0.08000000                  energy_gap     :    0.08000000
  eps_taylor     :   0.10000E-15                  max_taylor     :             4
  ----------------------------------- OT ---------------------------------------

  Step     Update method      Time    Convergence         Total energy    Change
  ------------------------------------------------------------------------------
     1 OT DIIS     0.80E-01    4.8     0.00027831      -902.8188062412 -9.03E+02
     2 OT DIIS     0.80E-01    6.0     0.00015404      -902.8190863927 -2.80E-04
     3 OT DIIS     0.80E-01    6.0     0.00009721      -902.8191854232 -9.90E-05
     4 OT DIIS     0.80E-01    6.0     0.00003683      -902.8192260636 -4.06E-05
     5 OT DIIS     0.80E-01    6.0     0.00001555      -902.8192325531 -6.49E-06
     6 OT DIIS     0.80E-01    6.0     0.00000709      -902.8192336951 -1.14E-06

  *** SCF run converged in     6 steps ***


  Electronic density on regular grids:       -407.9999942355        0.0000057645
  Core density on regular grids:              407.9999999752       -0.0000000248
  Total charge density on r-space grids:        0.0000057397
  Total charge density g-space grids:           0.0000057397

  Overlap energy of the core charge distribution:               0.00000006239911
  Self energy of the core charge distribution:              -2342.23014539452743
  Core Hamiltonian energy:                                    682.83549658641937
  Hartree energy:                                             971.46923451893372
  Exchange-correlation energy:                               -214.89381946832646

  Total energy:                                              -902.81923369510173

 ENERGY| Total FORCE_EVAL ( QS ) energy [hartree]           -902.819233916353369

 OPT| **************************************************************************
 OPT| Step number                                                             87
 OPT| Optimization method                                                  LBFGS
 OPT| Total energy [hartree]                                     -902.8192339164
 OPT| Effective energy change [hartree]                            -0.0001194821
 OPT| Decrease in energy                                                     YES
 OPT| Used time [s]                                                       99.672
 OPT|
 OPT| Maximum step size                                             0.0790283671
 OPT| Convergence limit for maximum step size                       0.0030000000
 OPT| Maximum step size is converged                                          NO
 OPT|
 OPT| RMS step size                                                 0.0063072670
 OPT| Convergence limit for RMS step size                           0.0015000000
 OPT| RMS step size is converged                                              NO
 OPT|
 OPT| Maximum gradient                                              0.0065649059
 OPT| Convergence limit for maximum gradient                        0.0010000000
 OPT| Maximum gradient is converged                                           NO
 OPT|
 OPT| RMS gradient                                                  0.0006570337
 OPT| Convergence limit for RMS gradient                            0.0003000000
 OPT| RMS gradient is converged                                               NO
 OPT| **************************************************************************
 OPT| Estimated peak process memory after this step [MiB]                   1798

 --------------------------
 OPTIMIZATION STEP:     88
 --------------------------

 Number of electrons:                                                        408
 Number of occupied orbitals:                                                204
 Number of molecular orbitals:                                               204

 Number of orbital functions:                                                314
 Number of independent orbital functions:                                    314

 Extrapolation method: ASPC


 SCF WAVEFUNCTION OPTIMIZATION

  ----------------------------------- OT ---------------------------------------
  Minimizer      : DIIS                : direct inversion
                                         in the iterative subspace
                                         using   7 DIIS vectors
                                         safer DIIS on
  Preconditioner : FULL_SINGLE_INVERSE : inversion of 
                                         H + eS - 2*(Sc)(c^T*H*c+const)(Sc)^T
  Precond_solver : DEFAULT
  stepsize       :    0.08000000                  energy_gap     :    0.08000000
  eps_taylor     :   0.10000E-15                  max_taylor     :             4
  ----------------------------------- OT ---------------------------------------

  Step     Update method      Time    Convergence         Total energy    Change
  ------------------------------------------------------------------------------
     1 OT DIIS     0.80E-01    4.8     0.00082680      -902.8146233999 -9.03E+02
     2 OT DIIS     0.80E-01    6.0     0.00052043      -902.8174377145 -2.81E-03
     3 OT DIIS     0.80E-01    6.0     0.00020494      -902.8192285974 -1.79E-03
     4 OT DIIS     0.80E-01    6.0     0.00007126      -902.8193750690 -1.46E-04
     5 OT DIIS     0.80E-01    6.0     0.00003658      -902.8193941844 -1.91E-05
     6 OT DIIS     0.80E-01    6.0     0.00001860      -902.8193996633 -5.48E-06
     7 OT DIIS     0.80E-01    6.0     0.00000893      -902.8194009387 -1.28E-06

  *** SCF run converged in     7 steps ***


  Electronic density on regular grids:       -407.9999942063        0.0000057937
  Core density on regular grids:              407.9999999752       -0.0000000248
  Total charge density on r-space grids:        0.0000057689
  Total charge density g-space grids:           0.0000057689

  Overlap energy of the core charge distribution:               0.00000006482780
  Self energy of the core charge distribution:              -2342.23014539452743
  Core Hamiltonian energy:                                    682.84867147226635
  Hartree energy:                                             971.46089940104468
  Exchange-correlation energy:                               -214.89882648235380

  Total energy:                                              -902.81940093874243

 ENERGY| Total FORCE_EVAL ( QS ) energy [hartree]           -902.819401244372784

 OPT| **************************************************************************
 OPT| Step number                                                             88
 OPT| Optimization method                                                  LBFGS
 OPT| Total energy [hartree]                                     -902.8194012444
 OPT| Effective energy change [hartree]                            -0.0001673280
 OPT| Decrease in energy                                                     YES
 OPT| Used time [s]                                                       49.826
 OPT|
 OPT| Maximum step size                                             0.0250876899
 OPT| Convergence limit for maximum step size                       0.0030000000
 OPT| Maximum step size is converged                                          NO
 OPT|
 OPT| RMS step size                                                 0.0034797559
 OPT| Convergence limit for RMS step size                           0.0015000000
 OPT| RMS step size is converged                                              NO
 OPT|
 OPT| Maximum gradient                                              0.0068951560
 OPT| Convergence limit for maximum gradient                        0.0010000000
 OPT| Maximum gradient is converged                                           NO
 OPT|
 OPT| RMS gradient                                                  0.0011428357
 OPT| Convergence limit for RMS gradient                            0.0003000000
 OPT| RMS gradient is converged                                               NO
 OPT| **************************************************************************
 OPT| Estimated peak process memory after this step [MiB]                   1798

 --------------------------
 OPTIMIZATION STEP:     89
 --------------------------

 Number of electrons:                                                        408
 Number of occupied orbitals:                                                204
 Number of molecular orbitals:                                               204

 Number of orbital functions:                                                314
 Number of independent orbital functions:                                    314

 Extrapolation method: ASPC


 SCF WAVEFUNCTION OPTIMIZATION

  ----------------------------------- OT ---------------------------------------
  Minimizer      : DIIS                : direct inversion
                                         in the iterative subspace
                                         using   7 DIIS vectors
                                         safer DIIS on
  Preconditioner : FULL_SINGLE_INVERSE : inversion of 
                                         H + eS - 2*(Sc)(c^T*H*c+const)(Sc)^T
  Precond_solver : DEFAULT
  stepsize       :    0.08000000                  energy_gap     :    0.08000000
  eps_taylor     :   0.10000E-15                  max_taylor     :             4
  ----------------------------------- OT ---------------------------------------

  Step     Update method      Time    Convergence         Total energy    Change
  ------------------------------------------------------------------------------
     1 OT DIIS     0.80E-01    4.8     0.00033537      -902.8190003067 -9.03E+02
     2 OT DIIS     0.80E-01    6.0     0.00019558      -902.8194246122 -4.24E-04
     3 OT DIIS     0.80E-01    6.0     0.00012198      -902.8196001121 -1.75E-04
     4 OT DIIS     0.80E-01    6.0     0.00004397      -902.8196650017 -6.49E-05
     5 OT DIIS     0.80E-01    6.0     0.00002206      -902.8196728258 -7.82E-06
     6 OT DIIS     0.80E-01    6.0     0.00000946      -902.8196744771 -1.65E-06

  *** SCF run converged in     6 steps ***


  Electronic density on regular grids:       -407.9999942505        0.0000057495
  Core density on regular grids:              407.9999999753       -0.0000000247
  Total charge density on r-space grids:        0.0000057248
  Total charge density g-space grids:           0.0000057248

  Overlap energy of the core charge distribution:               0.00000006267097
  Self energy of the core charge distribution:              -2342.23014539452743
  Core Hamiltonian energy:                                    682.83412155444580
  Hartree energy:                                             971.47012376832788
  Exchange-correlation energy:                               -214.89377446796760

  Total energy:                                              -902.81967447705028

 ENERGY| Total FORCE_EVAL ( QS ) energy [hartree]           -902.819674798012329

 OPT| **************************************************************************
 OPT| Step number                                                             89
 OPT| Optimization method                                                  LBFGS
 OPT| Total energy [hartree]                                     -902.8196747980
 OPT| Effective energy change [hartree]                            -0.0002735536
 OPT| Decrease in energy                                                     YES
 OPT| Used time [s]                                                       43.807
 OPT|
 OPT| Maximum step size                                             0.1202542175
 OPT| Convergence limit for maximum step size                       0.0030000000
 OPT| Maximum step size is converged                                          NO
 OPT|
 OPT| RMS step size                                                 0.0095678987
 OPT| Convergence limit for RMS step size                           0.0015000000
 OPT| RMS step size is converged                                              NO
 OPT|
 OPT| Maximum gradient                                              0.0080258926
 OPT| Convergence limit for maximum gradient                        0.0010000000
 OPT| Maximum gradient is converged                                           NO
 OPT|
 OPT| RMS gradient                                                  0.0008807912
 OPT| Convergence limit for RMS gradient                            0.0003000000
 OPT| RMS gradient is converged                                               NO
 OPT| **************************************************************************
 OPT| Estimated peak process memory after this step [MiB]                   1798

 --------------------------
 OPTIMIZATION STEP:     90
 --------------------------

 Number of electrons:                                                        408
 Number of occupied orbitals:                                                204
 Number of molecular orbitals:                                               204

 Number of orbital functions:                                                314
 Number of independent orbital functions:                                    314

 Extrapolation method: ASPC


 SCF WAVEFUNCTION OPTIMIZATION

  ----------------------------------- OT ---------------------------------------
  Minimizer      : DIIS                : direct inversion
                                         in the iterative subspace
                                         using   7 DIIS vectors
                                         safer DIIS on
  Preconditioner : FULL_SINGLE_INVERSE : inversion of 
                                         H + eS - 2*(Sc)(c^T*H*c+const)(Sc)^T
  Precond_solver : DEFAULT
  stepsize       :    0.08000000                  energy_gap     :    0.08000000
  eps_taylor     :   0.10000E-15                  max_taylor     :             4
  ----------------------------------- OT ---------------------------------------

  Step     Update method      Time    Convergence         Total energy    Change
  ------------------------------------------------------------------------------
     1 OT DIIS     0.80E-01    4.8     0.00043373      -902.8186536771 -9.03E+02
     2 OT DIIS     0.80E-01    6.0     0.00026446      -902.8194060709 -7.52E-04
     3 OT DIIS     0.80E-01    6.0     0.00013045      -902.8198169234 -4.11E-04
     4 OT DIIS     0.80E-01    6.0     0.00004613      -902.8198916640 -7.47E-05
     5 OT DIIS     0.80E-01    6.0     0.00002089      -902.8199000405 -8.38E-06
     6 OT DIIS     0.80E-01    6.0     0.00001055      -902.8199018862 -1.85E-06
     7 OT DIIS     0.80E-01    6.0     0.00000528      -902.8199022872 -4.01E-07

  *** SCF run converged in     7 steps ***


  Electronic density on regular grids:       -407.9999942076        0.0000057924
  Core density on regular grids:              407.9999999753       -0.0000000247
  Total charge density on r-space grids:        0.0000057677
  Total charge density g-space grids:           0.0000057677

  Overlap energy of the core charge distribution:               0.00000006247499
  Self energy of the core charge distribution:              -2342.23014539452743
  Core Hamiltonian energy:                                    682.82965724341909
  Hartree energy:                                             971.47358014342626
  Exchange-correlation energy:                               -214.89299434198415

  Total energy:                                              -902.81990228719110

 ENERGY| Total FORCE_EVAL ( QS ) energy [hartree]           -902.819902398173554

 OPT| **************************************************************************
 OPT| Step number                                                             90
 OPT| Optimization method                                                  LBFGS
 OPT| Total energy [hartree]                                     -902.8199023982
 OPT| Effective energy change [hartree]                            -0.0002276002
 OPT| Decrease in energy                                                     YES
 OPT| Used time [s]                                                       49.811
 OPT|
 OPT| Maximum step size                                             0.0324129972
 OPT| Convergence limit for maximum step size                       0.0030000000
 OPT| Maximum step size is converged                                          NO
 OPT|
 OPT| RMS step size                                                 0.0034396540
 OPT| Convergence limit for RMS step size                           0.0015000000
 OPT| RMS step size is converged                                              NO
 OPT|
 OPT| Maximum gradient                                              0.0039017252
 OPT| Convergence limit for maximum gradient                        0.0010000000
 OPT| Maximum gradient is converged                                           NO
 OPT|
 OPT| RMS gradient                                                  0.0006484968
 OPT| Convergence limit for RMS gradient                            0.0003000000
 OPT| RMS gradient is converged                                               NO
 OPT| **************************************************************************
 OPT| Estimated peak process memory after this step [MiB]                   1798

 --------------------------
 OPTIMIZATION STEP:     91
 --------------------------

 Number of electrons:                                                        408
 Number of occupied orbitals:                                                204
 Number of molecular orbitals:                                               204

 Number of orbital functions:                                                314
 Number of independent orbital functions:                                    314

 Extrapolation method: ASPC


 SCF WAVEFUNCTION OPTIMIZATION

  ----------------------------------- OT ---------------------------------------
  Minimizer      : DIIS                : direct inversion
                                         in the iterative subspace
                                         using   7 DIIS vectors
                                         safer DIIS on
  Preconditioner : FULL_SINGLE_INVERSE : inversion of 
                                         H + eS - 2*(Sc)(c^T*H*c+const)(Sc)^T
  Precond_solver : DEFAULT
  stepsize       :    0.08000000                  energy_gap     :    0.08000000
  eps_taylor     :   0.10000E-15                  max_taylor     :             4
  ----------------------------------- OT ---------------------------------------

  Step     Update method      Time    Convergence         Total energy    Change
  ------------------------------------------------------------------------------
     1 OT DIIS     0.80E-01    4.8     0.00052515      -902.8181575342 -9.03E+02
     2 OT DIIS     0.80E-01    6.0     0.00033143      -902.8192984242 -1.14E-03
     3 OT DIIS     0.80E-01    6.0     0.00010069      -902.8200515312 -7.53E-04
     4 OT DIIS     0.80E-01    6.0     0.00004448      -902.8200922948 -4.08E-05
     5 OT DIIS     0.80E-01    6.0     0.00002064      -902.8200991148 -6.82E-06
     6 OT DIIS     0.80E-01    6.0     0.00000939      -902.8201012020 -2.09E-06

  *** SCF run converged in     6 steps ***


  Electronic density on regular grids:       -407.9999941804        0.0000058196
  Core density on regular grids:              407.9999999750       -0.0000000250
  Total charge density on r-space grids:        0.0000057947
  Total charge density g-space grids:           0.0000057947

  Overlap energy of the core charge distribution:               0.00000006217920
  Self energy of the core charge distribution:              -2342.23014539452743
  Core Hamiltonian energy:                                    682.82035685629728
  Hartree energy:                                             971.48034837918624
  Exchange-correlation energy:                               -214.89066110513963

  Total energy:                                              -902.82010120200425

 ENERGY| Total FORCE_EVAL ( QS ) energy [hartree]           -902.820101538851418

 OPT| **************************************************************************
 OPT| Step number                                                             91
 OPT| Optimization method                                                  LBFGS
 OPT| Total energy [hartree]                                     -902.8201015389
 OPT| Effective energy change [hartree]                            -0.0001991407
 OPT| Decrease in energy                                                     YES
 OPT| Used time [s]                                                       43.818
 OPT|
 OPT| Maximum step size                                             0.0946598110
 OPT| Convergence limit for maximum step size                       0.0030000000
 OPT| Maximum step size is converged                                          NO
 OPT|
 OPT| RMS step size                                                 0.0077748627
 OPT| Convergence limit for RMS step size                           0.0015000000
 OPT| RMS step size is converged                                              NO
 OPT|
 OPT| Maximum gradient                                              0.0049591799
 OPT| Convergence limit for maximum gradient                        0.0010000000
 OPT| Maximum gradient is converged                                           NO
 OPT|
 OPT| RMS gradient                                                  0.0008207359
 OPT| Convergence limit for RMS gradient                            0.0003000000
 OPT| RMS gradient is converged                                               NO
 OPT| **************************************************************************
 OPT| Estimated peak process memory after this step [MiB]                   1798

 --------------------------
 OPTIMIZATION STEP:     92
 --------------------------

 Number of electrons:                                                        408
 Number of occupied orbitals:                                                204
 Number of molecular orbitals:                                               204

 Number of orbital functions:                                                314
 Number of independent orbital functions:                                    314

 Extrapolation method: ASPC


 SCF WAVEFUNCTION OPTIMIZATION

  ----------------------------------- OT ---------------------------------------
  Minimizer      : DIIS                : direct inversion
                                         in the iterative subspace
                                         using   7 DIIS vectors
                                         safer DIIS on
  Preconditioner : FULL_SINGLE_INVERSE : inversion of 
                                         H + eS - 2*(Sc)(c^T*H*c+const)(Sc)^T
  Precond_solver : DEFAULT
  stepsize       :    0.08000000                  energy_gap     :    0.08000000
  eps_taylor     :   0.10000E-15                  max_taylor     :             4
  ----------------------------------- OT ---------------------------------------

  Step     Update method      Time    Convergence         Total energy    Change
  ------------------------------------------------------------------------------
     1 OT DIIS     0.80E-01    4.8     0.00030397      -902.8197839557 -9.03E+02
     2 OT DIIS     0.80E-01    6.0     0.00017739      -902.8201393943 -3.55E-04
     3 OT DIIS     0.80E-01    6.0     0.00009810      -902.8203009911 -1.62E-04
     4 OT DIIS     0.80E-01    6.0     0.00003600      -902.8203459059 -4.49E-05
     5 OT DIIS     0.80E-01    6.0     0.00001434      -902.8203509404 -5.03E-06
     6 OT DIIS     0.80E-01    6.0     0.00000728      -902.8203518692 -9.29E-07

  *** SCF run converged in     6 steps ***


  Electronic density on regular grids:       -407.9999940781        0.0000059219
  Core density on regular grids:              407.9999999751       -0.0000000249
  Total charge density on r-space grids:        0.0000058970
  Total charge density g-space grids:           0.0000058970

  Overlap energy of the core charge distribution:               0.00000006199300
  Self energy of the core charge distribution:              -2342.23014539452743
  Core Hamiltonian energy:                                    682.81075257151565
  Hartree energy:                                             971.48711483980628
  Exchange-correlation energy:                               -214.88807394796811

  Total energy:                                              -902.82035186918063

 ENERGY| Total FORCE_EVAL ( QS ) energy [hartree]           -902.820352055010176

 OPT| **************************************************************************
 OPT| Step number                                                             92
 OPT| Optimization method                                                  LBFGS
 OPT| Total energy [hartree]                                     -902.8203520550
 OPT| Effective energy change [hartree]                            -0.0002505162
 OPT| Decrease in energy                                                     YES
 OPT| Used time [s]                                                       43.815
 OPT|
 OPT| Maximum step size                                             0.1193951822
 OPT| Convergence limit for maximum step size                       0.0030000000
 OPT| Maximum step size is converged                                          NO
 OPT|
 OPT| RMS step size                                                 0.0111503489
 OPT| Convergence limit for RMS step size                           0.0015000000
 OPT| RMS step size is converged                                              NO
 OPT|
 OPT| Maximum gradient                                              0.0075779920
 OPT| Convergence limit for maximum gradient                        0.0010000000
 OPT| Maximum gradient is converged                                           NO
 OPT|
 OPT| RMS gradient                                                  0.0011976797
 OPT| Convergence limit for RMS gradient                            0.0003000000
 OPT| RMS gradient is converged                                               NO
 OPT| **************************************************************************
 OPT| Estimated peak process memory after this step [MiB]                   1798

 --------------------------
 OPTIMIZATION STEP:     93
 --------------------------

 Number of electrons:                                                        408
 Number of occupied orbitals:                                                204
 Number of molecular orbitals:                                               204

 Number of orbital functions:                                                314
 Number of independent orbital functions:                                    314

 Extrapolation method: ASPC


 SCF WAVEFUNCTION OPTIMIZATION

  ----------------------------------- OT ---------------------------------------
  Minimizer      : DIIS                : direct inversion
                                         in the iterative subspace
                                         using   7 DIIS vectors
                                         safer DIIS on
  Preconditioner : FULL_SINGLE_INVERSE : inversion of 
                                         H + eS - 2*(Sc)(c^T*H*c+const)(Sc)^T
  Precond_solver : DEFAULT
  stepsize       :    0.08000000                  energy_gap     :    0.08000000
  eps_taylor     :   0.10000E-15                  max_taylor     :             4
  ----------------------------------- OT ---------------------------------------

  Step     Update method      Time    Convergence         Total energy    Change
  ------------------------------------------------------------------------------
     1 OT DIIS     0.80E-01    4.8     0.00033934      -902.8199458570 -9.03E+02
     2 OT DIIS     0.80E-01    6.0     0.00018875      -902.8203644082 -4.19E-04
     3 OT DIIS     0.80E-01    6.0     0.00011902      -902.8205136492 -1.49E-04
     4 OT DIIS     0.80E-01    6.0     0.00004254      -902.8205733357 -5.97E-05
     5 OT DIIS     0.80E-01    6.0     0.00001735      -902.8205820002 -8.66E-06
     6 OT DIIS     0.80E-01    6.0     0.00000791      -902.8205833890 -1.39E-06

  *** SCF run converged in     6 steps ***


  Electronic density on regular grids:       -407.9999940962        0.0000059038
  Core density on regular grids:              407.9999999751       -0.0000000249
  Total charge density on r-space grids:        0.0000058789
  Total charge density g-space grids:           0.0000058789

  Overlap energy of the core charge distribution:               0.00000006253910
  Self energy of the core charge distribution:              -2342.23014539452743
  Core Hamiltonian energy:                                    682.80571772897565
  Hartree energy:                                             971.49186007819969
  Exchange-correlation energy:                               -214.88801586419373

  Total energy:                                              -902.82058338900674

 ENERGY| Total FORCE_EVAL ( QS ) energy [hartree]           -902.820583652256687

 OPT| **************************************************************************
 OPT| Step number                                                             93
 OPT| Optimization method                                                  LBFGS
 OPT| Total energy [hartree]                                     -902.8205836523
 OPT| Effective energy change [hartree]                            -0.0002315972
 OPT| Decrease in energy                                                     YES
 OPT| Used time [s]                                                       43.804
 OPT|
 OPT| Maximum step size                                             0.0962887966
 OPT| Convergence limit for maximum step size                       0.0030000000
 OPT| Maximum step size is converged                                          NO
 OPT|
 OPT| RMS step size                                                 0.0077167254
 OPT| Convergence limit for RMS step size                           0.0015000000
 OPT| RMS step size is converged                                              NO
 OPT|
 OPT| Maximum gradient                                              0.0036621619
 OPT| Convergence limit for maximum gradient                        0.0010000000
 OPT| Maximum gradient is converged                                           NO
 OPT|
 OPT| RMS gradient                                                  0.0008201047
 OPT| Convergence limit for RMS gradient                            0.0003000000
 OPT| RMS gradient is converged                                               NO
 OPT| **************************************************************************
 OPT| Estimated peak process memory after this step [MiB]                   1798

 --------------------------
 OPTIMIZATION STEP:     94
 --------------------------

 Number of electrons:                                                        408
 Number of occupied orbitals:                                                204
 Number of molecular orbitals:                                               204

 Number of orbital functions:                                                314
 Number of independent orbital functions:                                    314

 Extrapolation method: ASPC


 SCF WAVEFUNCTION OPTIMIZATION

  ----------------------------------- OT ---------------------------------------
  Minimizer      : DIIS                : direct inversion
                                         in the iterative subspace
                                         using   7 DIIS vectors
                                         safer DIIS on
  Preconditioner : FULL_SINGLE_INVERSE : inversion of 
                                         H + eS - 2*(Sc)(c^T*H*c+const)(Sc)^T
  Precond_solver : DEFAULT
  stepsize       :    0.08000000                  energy_gap     :    0.08000000
  eps_taylor     :   0.10000E-15                  max_taylor     :             4
  ----------------------------------- OT ---------------------------------------

  Step     Update method      Time    Convergence         Total energy    Change
  ------------------------------------------------------------------------------
     1 OT DIIS     0.80E-01    4.8     0.00040253      -902.8196880037 -9.03E+02
     2 OT DIIS     0.80E-01    6.0     0.00023674      -902.8203091631 -6.21E-04
     3 OT DIIS     0.80E-01    6.0     0.00014125      -902.8205831146 -2.74E-04
     4 OT DIIS     0.80E-01    6.0     0.00004648      -902.8206706553 -8.75E-05
     5 OT DIIS     0.80E-01    6.0     0.00001951      -902.8206806692 -1.00E-05
     6 OT DIIS     0.80E-01    6.0     0.00000881      -902.8206823586 -1.69E-06

  *** SCF run converged in     6 steps ***


  Electronic density on regular grids:       -407.9999941072        0.0000058928
  Core density on regular grids:              407.9999999750       -0.0000000250
  Total charge density on r-space grids:        0.0000058678
  Total charge density g-space grids:           0.0000058678

  Overlap energy of the core charge distribution:               0.00000006404259
  Self energy of the core charge distribution:              -2342.23014539452743
  Core Hamiltonian energy:                                    682.82411200700972
  Hartree energy:                                             971.47892085672981
  Exchange-correlation energy:                               -214.89356989190347

  Total energy:                                              -902.82068235864881

 ENERGY| Total FORCE_EVAL ( QS ) energy [hartree]           -902.820682681818653

 OPT| **************************************************************************
 OPT| Step number                                                             94
 OPT| Optimization method                                                  LBFGS
 OPT| Total energy [hartree]                                     -902.8206826818
 OPT| Effective energy change [hartree]                            -0.0000990296
 OPT| Decrease in energy                                                     YES
 OPT| Used time [s]                                                       43.801
 OPT|
 OPT| Maximum step size                                             0.0476182531
 OPT| Convergence limit for maximum step size                       0.0030000000
 OPT| Maximum step size is converged                                          NO
 OPT|
 OPT| RMS step size                                                 0.0042161161
 OPT| Convergence limit for RMS step size                           0.0015000000
 OPT| RMS step size is converged                                              NO
 OPT|
 OPT| Maximum gradient                                              0.0038444939
 OPT| Convergence limit for maximum gradient                        0.0010000000
 OPT| Maximum gradient is converged                                           NO
 OPT|
 OPT| RMS gradient                                                  0.0005541703
 OPT| Convergence limit for RMS gradient                            0.0003000000
 OPT| RMS gradient is converged                                               NO
 OPT| **************************************************************************
 OPT| Estimated peak process memory after this step [MiB]                   1798

 --------------------------
 OPTIMIZATION STEP:     95
 --------------------------

 Number of electrons:                                                        408
 Number of occupied orbitals:                                                204
 Number of molecular orbitals:                                               204

 Number of orbital functions:                                                314
 Number of independent orbital functions:                                    314

 Extrapolation method: ASPC


 SCF WAVEFUNCTION OPTIMIZATION

  ----------------------------------- OT ---------------------------------------
  Minimizer      : DIIS                : direct inversion
                                         in the iterative subspace
                                         using   7 DIIS vectors
                                         safer DIIS on
  Preconditioner : FULL_SINGLE_INVERSE : inversion of 
                                         H + eS - 2*(Sc)(c^T*H*c+const)(Sc)^T
  Precond_solver : DEFAULT
  stepsize       :    0.08000000                  energy_gap     :    0.08000000
  eps_taylor     :   0.10000E-15                  max_taylor     :             4
  ----------------------------------- OT ---------------------------------------

  Step     Update method      Time    Convergence         Total energy    Change
  ------------------------------------------------------------------------------
     1 OT DIIS     0.80E-01    4.8     0.00060361      -902.8182126893 -9.03E+02
     2 OT DIIS     0.80E-01    6.0     0.00038198      -902.8197194273 -1.51E-03
     3 OT DIIS     0.80E-01    6.0     0.00013543      -902.8207078323 -9.88E-04
     4 OT DIIS     0.80E-01    6.0     0.00004884      -902.8207739177 -6.61E-05
     5 OT DIIS     0.80E-01    6.0     0.00002249      -902.8207837675 -9.85E-06
     6 OT DIIS     0.80E-01    6.0     0.00001125      -902.8207860110 -2.24E-06
     7 OT DIIS     0.80E-01    6.0     0.00000550      -902.8207865326 -5.22E-07

  *** SCF run converged in     7 steps ***


  Electronic density on regular grids:       -407.9999941191        0.0000058809
  Core density on regular grids:              407.9999999751       -0.0000000249
  Total charge density on r-space grids:        0.0000058560
  Total charge density g-space grids:           0.0000058560

  Overlap energy of the core charge distribution:               0.00000006331993
  Self energy of the core charge distribution:              -2342.23014539452743
  Core Hamiltonian energy:                                    682.82598894069633
  Hartree energy:                                             971.47694667812618
  Exchange-correlation energy:                               -214.89357682019428

  Total energy:                                              -902.82078653257929

 ENERGY| Total FORCE_EVAL ( QS ) energy [hartree]           -902.820786650560649

 OPT| **************************************************************************
 OPT| Step number                                                             95
 OPT| Optimization method                                                  LBFGS
 OPT| Total energy [hartree]                                     -902.8207866506
 OPT| Effective energy change [hartree]                            -0.0001039687
 OPT| Decrease in energy                                                     YES
 OPT| Used time [s]                                                       49.834
 OPT|
 OPT| Maximum step size                                             0.0406367163
 OPT| Convergence limit for maximum step size                       0.0030000000
 OPT| Maximum step size is converged                                          NO
 OPT|
 OPT| RMS step size                                                 0.0031143240
 OPT| Convergence limit for RMS step size                           0.0015000000
 OPT| RMS step size is converged                                              NO
 OPT|
 OPT| Maximum gradient                                              0.0021265855
 OPT| Convergence limit for maximum gradient                        0.0010000000
 OPT| Maximum gradient is converged                                           NO
 OPT|
 OPT| RMS gradient                                                  0.0003866085
 OPT| Convergence limit for RMS gradient                            0.0003000000
 OPT| RMS gradient is converged                                               NO
 OPT| **************************************************************************
 OPT| Estimated peak process memory after this step [MiB]                   1798

 --------------------------
 OPTIMIZATION STEP:     96
 --------------------------

 Number of electrons:                                                        408
 Number of occupied orbitals:                                                204
 Number of molecular orbitals:                                               204

 Number of orbital functions:                                                314
 Number of independent orbital functions:                                    314

 Extrapolation method: ASPC


 SCF WAVEFUNCTION OPTIMIZATION

  ----------------------------------- OT ---------------------------------------
  Minimizer      : DIIS                : direct inversion
                                         in the iterative subspace
                                         using   7 DIIS vectors
                                         safer DIIS on
  Preconditioner : FULL_SINGLE_INVERSE : inversion of 
                                         H + eS - 2*(Sc)(c^T*H*c+const)(Sc)^T
  Precond_solver : DEFAULT
  stepsize       :    0.08000000                  energy_gap     :    0.08000000
  eps_taylor     :   0.10000E-15                  max_taylor     :             4
  ----------------------------------- OT ---------------------------------------

  Step     Update method      Time    Convergence         Total energy    Change
  ------------------------------------------------------------------------------
     1 OT DIIS     0.80E-01    4.8     0.00035847      -902.8199919137 -9.03E+02
     2 OT DIIS     0.80E-01    6.0     0.00022338      -902.8205162926 -5.24E-04
     3 OT DIIS     0.80E-01    6.0     0.00008938      -902.8208387966 -3.23E-04
     4 OT DIIS     0.80E-01    6.0     0.00003627      -902.8208735972 -3.48E-05
     5 OT DIIS     0.80E-01    6.0     0.00001629      -902.8208775346 -3.94E-06
     6 OT DIIS     0.80E-01    6.0     0.00000832      -902.8208786406 -1.11E-06

  *** SCF run converged in     6 steps ***


  Electronic density on regular grids:       -407.9999941274        0.0000058726
  Core density on regular grids:              407.9999999752       -0.0000000248
  Total charge density on r-space grids:        0.0000058478
  Total charge density g-space grids:           0.0000058478

  Overlap energy of the core charge distribution:               0.00000006271037
  Self energy of the core charge distribution:              -2342.23014539452743
  Core Hamiltonian energy:                                    682.82741175718718
  Hartree energy:                                             971.47545665430550
  Exchange-correlation energy:                               -214.89360172023635

  Total energy:                                              -902.82087864056041

 ENERGY| Total FORCE_EVAL ( QS ) energy [hartree]           -902.820878888536072

 OPT| **************************************************************************
 OPT| Step number                                                             96
 OPT| Optimization method                                                  LBFGS
 OPT| Total energy [hartree]                                     -902.8208788885
 OPT| Effective energy change [hartree]                            -0.0000922380
 OPT| Decrease in energy                                                     YES
 OPT| Used time [s]                                                       43.796
 OPT|
 OPT| Maximum step size                                             0.0593556361
 OPT| Convergence limit for maximum step size                       0.0030000000
 OPT| Maximum step size is converged                                          NO
 OPT|
 OPT| RMS step size                                                 0.0046647930
 OPT| Convergence limit for RMS step size                           0.0015000000
 OPT| RMS step size is converged                                              NO
 OPT|
 OPT| Maximum gradient                                              0.0038400329
 OPT| Convergence limit for maximum gradient                        0.0010000000
 OPT| Maximum gradient is converged                                           NO
 OPT|
 OPT| RMS gradient                                                  0.0004432240
 OPT| Convergence limit for RMS gradient                            0.0003000000
 OPT| RMS gradient is converged                                               NO
 OPT| **************************************************************************
 OPT| Estimated peak process memory after this step [MiB]                   1798

 --------------------------
 OPTIMIZATION STEP:     97
 --------------------------

 Number of electrons:                                                        408
 Number of occupied orbitals:                                                204
 Number of molecular orbitals:                                               204

 Number of orbital functions:                                                314
 Number of independent orbital functions:                                    314

 Extrapolation method: ASPC


 SCF WAVEFUNCTION OPTIMIZATION

  ----------------------------------- OT ---------------------------------------
  Minimizer      : DIIS                : direct inversion
                                         in the iterative subspace
                                         using   7 DIIS vectors
                                         safer DIIS on
  Preconditioner : FULL_SINGLE_INVERSE : inversion of 
                                         H + eS - 2*(Sc)(c^T*H*c+const)(Sc)^T
  Precond_solver : DEFAULT
  stepsize       :    0.08000000                  energy_gap     :    0.08000000
  eps_taylor     :   0.10000E-15                  max_taylor     :             4
  ----------------------------------- OT ---------------------------------------

  Step     Update method      Time    Convergence         Total energy    Change
  ------------------------------------------------------------------------------
     1 OT DIIS     0.80E-01    4.8     0.00017071      -902.8208120749 -9.03E+02
     2 OT DIIS     0.80E-01    6.0     0.00010758      -902.8209307339 -1.19E-04
     3 OT DIIS     0.80E-01    6.0     0.00005612      -902.8210008895 -7.02E-05
     4 OT DIIS     0.80E-01    6.0     0.00001541      -902.8210125501 -1.17E-05
     5 OT DIIS     0.80E-01    6.0     0.00000691      -902.8210134770 -9.27E-07

  *** SCF run converged in     5 steps ***


  Electronic density on regular grids:       -407.9999941082        0.0000058918
  Core density on regular grids:              407.9999999751       -0.0000000249
  Total charge density on r-space grids:        0.0000058668
  Total charge density g-space grids:           0.0000058668

  Overlap energy of the core charge distribution:               0.00000006256547
  Self energy of the core charge distribution:              -2342.23014539452743
  Core Hamiltonian energy:                                    682.82856668149589
  Hartree energy:                                             971.47475597539369
  Exchange-correlation energy:                               -214.89419080189236

  Total energy:                                              -902.82101347696471

 ENERGY| Total FORCE_EVAL ( QS ) energy [hartree]           -902.821013684388845

 OPT| **************************************************************************
 OPT| Step number                                                             97
 OPT| Optimization method                                                  LBFGS
 OPT| Total energy [hartree]                                     -902.8210136844
 OPT| Effective energy change [hartree]                            -0.0001347959
 OPT| Decrease in energy                                                     YES
 OPT| Used time [s]                                                       37.785
 OPT|
 OPT| Maximum step size                                             0.0950270321
 OPT| Convergence limit for maximum step size                       0.0030000000
 OPT| Maximum step size is converged                                          NO
 OPT|
 OPT| RMS step size                                                 0.0076292670
 OPT| Convergence limit for RMS step size                           0.0015000000
 OPT| RMS step size is converged                                              NO
 OPT|
 OPT| Maximum gradient                                              0.0048641473
 OPT| Convergence limit for maximum gradient                        0.0010000000
 OPT| Maximum gradient is converged                                           NO
 OPT|
 OPT| RMS gradient                                                  0.0005565172
 OPT| Convergence limit for RMS gradient                            0.0003000000
 OPT| RMS gradient is converged                                               NO
 OPT| **************************************************************************
 OPT| Estimated peak process memory after this step [MiB]                   1798

 --------------------------
 OPTIMIZATION STEP:     98
 --------------------------

 Number of electrons:                                                        408
 Number of occupied orbitals:                                                204
 Number of molecular orbitals:                                               204

 Number of orbital functions:                                                314
 Number of independent orbital functions:                                    314

 Extrapolation method: ASPC


 SCF WAVEFUNCTION OPTIMIZATION

  ----------------------------------- OT ---------------------------------------
  Minimizer      : DIIS                : direct inversion
                                         in the iterative subspace
                                         using   7 DIIS vectors
                                         safer DIIS on
  Preconditioner : FULL_SINGLE_INVERSE : inversion of 
                                         H + eS - 2*(Sc)(c^T*H*c+const)(Sc)^T
  Precond_solver : DEFAULT
  stepsize       :    0.08000000                  energy_gap     :    0.08000000
  eps_taylor     :   0.10000E-15                  max_taylor     :             4
  ----------------------------------- OT ---------------------------------------

  Step     Update method      Time    Convergence         Total energy    Change
  ------------------------------------------------------------------------------
     1 OT DIIS     0.80E-01    4.8     0.00025911      -902.8205318840 -9.03E+02
     2 OT DIIS     0.80E-01    6.0     0.00015432      -902.8207946033 -2.63E-04
     3 OT DIIS     0.80E-01    6.0     0.00008390      -902.8209223644 -1.28E-04
     4 OT DIIS     0.80E-01    6.0     0.00002898      -902.8209532748 -3.09E-05
     5 OT DIIS     0.80E-01    6.0     0.00001185      -902.8209565422 -3.27E-06
     6 OT DIIS     0.80E-01    6.0     0.00000578      -902.8209571543 -6.12E-07

  *** SCF run converged in     6 steps ***


  Electronic density on regular grids:       -407.9999941093        0.0000058907
  Core density on regular grids:              407.9999999752       -0.0000000248
  Total charge density on r-space grids:        0.0000058658
  Total charge density g-space grids:           0.0000058658

  Overlap energy of the core charge distribution:               0.00000006162233
  Self energy of the core charge distribution:              -2342.23014539452743
  Core Hamiltonian energy:                                    682.84928954066083
  Hartree energy:                                             971.45824755176125
  Exchange-correlation energy:                               -214.89834891383543

  Total energy:                                              -902.82095715431853

 ENERGY| Total FORCE_EVAL ( QS ) energy [hartree]           -902.820957282090376

 Number of electrons:                                                        408
 Number of occupied orbitals:                                                204
 Number of molecular orbitals:                                               204

 Number of orbital functions:                                                314
 Number of independent orbital functions:                                    314

 Extrapolation method: ASPC


 SCF WAVEFUNCTION OPTIMIZATION

  ----------------------------------- OT ---------------------------------------
  Minimizer      : DIIS                : direct inversion
                                         in the iterative subspace
                                         using   7 DIIS vectors
                                         safer DIIS on
  Preconditioner : FULL_SINGLE_INVERSE : inversion of 
                                         H + eS - 2*(Sc)(c^T*H*c+const)(Sc)^T
  Precond_solver : DEFAULT
  stepsize       :    0.08000000                  energy_gap     :    0.08000000
  eps_taylor     :   0.10000E-15                  max_taylor     :             4
  ----------------------------------- OT ---------------------------------------

  Step     Update method      Time    Convergence         Total energy    Change
  ------------------------------------------------------------------------------
     1 OT DIIS     0.80E-01    4.8     0.00041568      -902.8200987239 -9.03E+02
     2 OT DIIS     0.80E-01    6.0     0.00023023      -902.8207500848 -6.51E-04
     3 OT DIIS     0.80E-01    6.0     0.00012187      -902.8210153911 -2.65E-04
     4 OT DIIS     0.80E-01    6.0     0.00004933      -902.8210827079 -6.73E-05
     5 OT DIIS     0.80E-01    6.0     0.00002082      -902.8210925906 -9.88E-06
     6 OT DIIS     0.80E-01    6.0     0.00000947      -902.8210945474 -1.96E-06

  *** SCF run converged in     6 steps ***


  Electronic density on regular grids:       -407.9999941036        0.0000058964
  Core density on regular grids:              407.9999999751       -0.0000000249
  Total charge density on r-space grids:        0.0000058715
  Total charge density g-space grids:           0.0000058715

  Overlap energy of the core charge distribution:               0.00000006204589
  Self energy of the core charge distribution:              -2342.23014539452743
  Core Hamiltonian energy:                                    682.83801951520047
  Hartree energy:                                             971.46715440396474
  Exchange-correlation energy:                               -214.89612313411882

  Total energy:                                              -902.82109454743545

 ENERGY| Total FORCE_EVAL ( QS ) energy [hartree]           -902.821094909740850

 OPT| **************************************************************************
 OPT| Step number                                                             98
 OPT| Optimization method                                                  LBFGS
 OPT| Total energy [hartree]                                     -902.8210949097
 OPT| Effective energy change [hartree]                            -0.0000812254
 OPT| Decrease in energy                                                     YES
 OPT| Used time [s]                                                       87.618
 OPT|
 OPT| Maximum step size                                             0.0222089905
 OPT| Convergence limit for maximum step size                       0.0030000000
 OPT| Maximum step size is converged                                          NO
 OPT|
 OPT| RMS step size                                                 0.0027110840
 OPT| Convergence limit for RMS step size                           0.0015000000
 OPT| RMS step size is converged                                              NO
 OPT|
 OPT| Maximum gradient                                              0.0035170470
 OPT| Convergence limit for maximum gradient                        0.0010000000
 OPT| Maximum gradient is converged                                           NO
 OPT|
 OPT| RMS gradient                                                  0.0006252258
 OPT| Convergence limit for RMS gradient                            0.0003000000
 OPT| RMS gradient is converged                                               NO
 OPT| **************************************************************************
 OPT| Estimated peak process memory after this step [MiB]                   1798

 --------------------------
 OPTIMIZATION STEP:     99
 --------------------------

 Number of electrons:                                                        408
 Number of occupied orbitals:                                                204
 Number of molecular orbitals:                                               204

 Number of orbital functions:                                                314
 Number of independent orbital functions:                                    314

 Extrapolation method: ASPC


 SCF WAVEFUNCTION OPTIMIZATION

  ----------------------------------- OT ---------------------------------------
  Minimizer      : DIIS                : direct inversion
                                         in the iterative subspace
                                         using   7 DIIS vectors
                                         safer DIIS on
  Preconditioner : FULL_SINGLE_INVERSE : inversion of 
                                         H + eS - 2*(Sc)(c^T*H*c+const)(Sc)^T
  Precond_solver : DEFAULT
  stepsize       :    0.08000000                  energy_gap     :    0.08000000
  eps_taylor     :   0.10000E-15                  max_taylor     :             4
  ----------------------------------- OT ---------------------------------------

  Step     Update method      Time    Convergence         Total energy    Change
  ------------------------------------------------------------------------------
     1 OT DIIS     0.80E-01    4.8     0.00054381      -902.8192905941 -9.03E+02
     2 OT DIIS     0.80E-01    6.0     0.00032275      -902.8204589961 -1.17E-03
     3 OT DIIS     0.80E-01    6.0     0.00015044      -902.8210634092 -6.04E-04
     4 OT DIIS     0.80E-01    6.0     0.00005886      -902.8211747583 -1.11E-04
     5 OT DIIS     0.80E-01    6.0     0.00002532      -902.8211892911 -1.45E-05
     6 OT DIIS     0.80E-01    6.0     0.00001119      -902.8211923488 -3.06E-06
     7 OT DIIS     0.80E-01    6.0     0.00000550      -902.8211928961 -5.47E-07

  *** SCF run converged in     7 steps ***


  Electronic density on regular grids:       -407.9999940889        0.0000059111
  Core density on regular grids:              407.9999999752       -0.0000000248
  Total charge density on r-space grids:        0.0000058863
  Total charge density g-space grids:           0.0000058863

  Overlap energy of the core charge distribution:               0.00000006306356
  Self energy of the core charge distribution:              -2342.23014539452743
  Core Hamiltonian energy:                                    682.84366559667387
  Hartree energy:                                             971.46373523934483
  Exchange-correlation energy:                               -214.89844840069776

  Total energy:                                              -902.82119289614297

 ENERGY| Total FORCE_EVAL ( QS ) energy [hartree]           -902.821193033597069

 OPT| **************************************************************************
 OPT| Step number                                                             99
 OPT| Optimization method                                                  LBFGS
 OPT| Total energy [hartree]                                     -902.8211930336
 OPT| Effective energy change [hartree]                            -0.0000981239
 OPT| Decrease in energy                                                     YES
 OPT| Used time [s]                                                       49.816
 OPT|
 OPT| Maximum step size                                             0.0241205857
 OPT| Convergence limit for maximum step size                       0.0030000000
 OPT| Maximum step size is converged                                          NO
 OPT|
 OPT| RMS step size                                                 0.0027068794
 OPT| Convergence limit for RMS step size                           0.0015000000
 OPT| RMS step size is converged                                              NO
 OPT|
 OPT| Maximum gradient                                              0.0015232860
 OPT| Convergence limit for maximum gradient                        0.0010000000
 OPT| Maximum gradient is converged                                           NO
 OPT|
 OPT| RMS gradient                                                  0.0003862919
 OPT| Convergence limit for RMS gradient                            0.0003000000
 OPT| RMS gradient is converged                                               NO
 OPT| **************************************************************************
 OPT| Estimated peak process memory after this step [MiB]                   1798

 --------------------------
 OPTIMIZATION STEP:    100
 --------------------------

 Number of electrons:                                                        408
 Number of occupied orbitals:                                                204
 Number of molecular orbitals:                                               204

 Number of orbital functions:                                                314
 Number of independent orbital functions:                                    314

 Extrapolation method: ASPC


 SCF WAVEFUNCTION OPTIMIZATION

  ----------------------------------- OT ---------------------------------------
  Minimizer      : DIIS                : direct inversion
                                         in the iterative subspace
                                         using   7 DIIS vectors
                                         safer DIIS on
  Preconditioner : FULL_SINGLE_INVERSE : inversion of 
                                         H + eS - 2*(Sc)(c^T*H*c+const)(Sc)^T
  Precond_solver : DEFAULT
  stepsize       :    0.08000000                  energy_gap     :    0.08000000
  eps_taylor     :   0.10000E-15                  max_taylor     :             4
  ----------------------------------- OT ---------------------------------------

  Step     Update method      Time    Convergence         Total energy    Change
  ------------------------------------------------------------------------------
     1 OT DIIS     0.80E-01    4.8     0.00030962      -902.8206729635 -9.03E+02
     2 OT DIIS     0.80E-01    6.0     0.00018352      -902.8210512693 -3.78E-04
     3 OT DIIS     0.80E-01    6.0     0.00008850      -902.8212438437 -1.93E-04
     4 OT DIIS     0.80E-01    6.0     0.00003456      -902.8212795297 -3.57E-05
     5 OT DIIS     0.80E-01    6.0     0.00001490      -902.8212843157 -4.79E-06
     6 OT DIIS     0.80E-01    6.0     0.00000689      -902.8212853079 -9.92E-07

  *** SCF run converged in     6 steps ***


  Electronic density on regular grids:       -407.9999940989        0.0000059011
  Core density on regular grids:              407.9999999752       -0.0000000248
  Total charge density on r-space grids:        0.0000058763
  Total charge density g-space grids:           0.0000058763

  Overlap energy of the core charge distribution:               0.00000006342298
  Self energy of the core charge distribution:              -2342.23014539452743
  Core Hamiltonian energy:                                    682.84635866333269
  Hartree energy:                                             971.46209761699254
  Exchange-correlation energy:                               -214.89959625716344

  Total energy:                                              -902.82128530794250

 ENERGY| Total FORCE_EVAL ( QS ) energy [hartree]           -902.821285514161104

 OPT| **************************************************************************
 OPT| Step number                                                            100
 OPT| Optimization method                                                  LBFGS
 OPT| Total energy [hartree]                                     -902.8212855142
 OPT| Effective energy change [hartree]                            -0.0000924806
 OPT| Decrease in energy                                                     YES
 OPT| Used time [s]                                                       43.807
 OPT|
 OPT| Maximum step size                                             0.0427456317
 OPT| Convergence limit for maximum step size                       0.0030000000
 OPT| Maximum step size is converged                                          NO
 OPT|
 OPT| RMS step size                                                 0.0038513607
 OPT| Convergence limit for RMS step size                           0.0015000000
 OPT| RMS step size is converged                                              NO
 OPT|
 OPT| Maximum gradient                                              0.0013337717
 OPT| Convergence limit for maximum gradient                        0.0010000000
 OPT| Maximum gradient is converged                                           NO
 OPT|
 OPT| RMS gradient                                                  0.0003877416
 OPT| Convergence limit for RMS gradient                            0.0003000000
 OPT| RMS gradient is converged                                               NO
 OPT| **************************************************************************
 OPT| Estimated peak process memory after this step [MiB]                   1798

 --------------------------
 OPTIMIZATION STEP:    101
 --------------------------

 Number of electrons:                                                        408
 Number of occupied orbitals:                                                204
 Number of molecular orbitals:                                               204

 Number of orbital functions:                                                314
 Number of independent orbital functions:                                    314

 Extrapolation method: ASPC


 SCF WAVEFUNCTION OPTIMIZATION

  ----------------------------------- OT ---------------------------------------
  Minimizer      : DIIS                : direct inversion
                                         in the iterative subspace
                                         using   7 DIIS vectors
                                         safer DIIS on
  Preconditioner : FULL_SINGLE_INVERSE : inversion of 
                                         H + eS - 2*(Sc)(c^T*H*c+const)(Sc)^T
  Precond_solver : DEFAULT
  stepsize       :    0.08000000                  energy_gap     :    0.08000000
  eps_taylor     :   0.10000E-15                  max_taylor     :             4
  ----------------------------------- OT ---------------------------------------

  Step     Update method      Time    Convergence         Total energy    Change
  ------------------------------------------------------------------------------
     1 OT DIIS     0.80E-01    4.8     0.00032069      -902.8207545825 -9.03E+02
     2 OT DIIS     0.80E-01    6.0     0.00020315      -902.8211806047 -4.26E-04
     3 OT DIIS     0.80E-01    6.0     0.00006454      -902.8214658181 -2.85E-04
     4 OT DIIS     0.80E-01    6.0     0.00002679      -902.8214820668 -1.62E-05
     5 OT DIIS     0.80E-01    6.0     0.00001187      -902.8214847889 -2.72E-06
     6 OT DIIS     0.80E-01    6.0     0.00000588      -902.8214854165 -6.28E-07

  *** SCF run converged in     6 steps ***


  Electronic density on regular grids:       -407.9999941105        0.0000058895
  Core density on regular grids:              407.9999999751       -0.0000000249
  Total charge density on r-space grids:        0.0000058646
  Total charge density g-space grids:           0.0000058646

  Overlap energy of the core charge distribution:               0.00000006344368
  Self energy of the core charge distribution:              -2342.23014539452743
  Core Hamiltonian energy:                                    682.84289158915294
  Hartree energy:                                             971.46467597485537
  Exchange-correlation energy:                               -214.89890764943775

  Total energy:                                              -902.82148541651327

 ENERGY| Total FORCE_EVAL ( QS ) energy [hartree]           -902.821485572743995

 OPT| **************************************************************************
 OPT| Step number                                                            101
 OPT| Optimization method                                                  LBFGS
 OPT| Total energy [hartree]                                     -902.8214855727
 OPT| Effective energy change [hartree]                            -0.0002000586
 OPT| Decrease in energy                                                     YES
 OPT| Used time [s]                                                       43.807
 OPT|
 OPT| Maximum step size                                             0.1283782449
 OPT| Convergence limit for maximum step size                       0.0030000000
 OPT| Maximum step size is converged                                          NO
 OPT|
 OPT| RMS step size                                                 0.0115466679
 OPT| Convergence limit for RMS step size                           0.0015000000
 OPT| RMS step size is converged                                              NO
 OPT|
 OPT| Maximum gradient                                              0.0029391495
 OPT| Convergence limit for maximum gradient                        0.0010000000
 OPT| Maximum gradient is converged                                           NO
 OPT|
 OPT| RMS gradient                                                  0.0006021043
 OPT| Convergence limit for RMS gradient                            0.0003000000
 OPT| RMS gradient is converged                                               NO
 OPT| **************************************************************************
 OPT| Estimated peak process memory after this step [MiB]                   1798

 --------------------------
 OPTIMIZATION STEP:    102
 --------------------------

 Number of electrons:                                                        408
 Number of occupied orbitals:                                                204
 Number of molecular orbitals:                                               204

 Number of orbital functions:                                                314
 Number of independent orbital functions:                                    314

 Extrapolation method: ASPC


 SCF WAVEFUNCTION OPTIMIZATION

  ----------------------------------- OT ---------------------------------------
  Minimizer      : DIIS                : direct inversion
                                         in the iterative subspace
                                         using   7 DIIS vectors
                                         safer DIIS on
  Preconditioner : FULL_SINGLE_INVERSE : inversion of 
                                         H + eS - 2*(Sc)(c^T*H*c+const)(Sc)^T
  Precond_solver : DEFAULT
  stepsize       :    0.08000000                  energy_gap     :    0.08000000
  eps_taylor     :   0.10000E-15                  max_taylor     :             4
  ----------------------------------- OT ---------------------------------------

  Step     Update method      Time    Convergence         Total energy    Change
  ------------------------------------------------------------------------------
     1 OT DIIS     0.80E-01    4.8     0.00038025      -902.8206813697 -9.03E+02
     2 OT DIIS     0.80E-01    6.0     0.00023274      -902.8212611536 -5.80E-04
     3 OT DIIS     0.80E-01    6.0     0.00010265      -902.8215921968 -3.31E-04
     4 OT DIIS     0.80E-01    6.0     0.00003764      -902.8216506850 -5.85E-05
     5 OT DIIS     0.80E-01    6.0     0.00001559      -902.8216557377 -5.05E-06
     6 OT DIIS     0.80E-01    6.0     0.00000667      -902.8216568839 -1.15E-06

  *** SCF run converged in     6 steps ***


  Electronic density on regular grids:       -407.9999941197        0.0000058803
  Core density on regular grids:              407.9999999750       -0.0000000250
  Total charge density on r-space grids:        0.0000058553
  Total charge density g-space grids:           0.0000058553

  Overlap energy of the core charge distribution:               0.00000006409671
  Self energy of the core charge distribution:              -2342.23014539452743
  Core Hamiltonian energy:                                    682.84213259341016
  Hartree energy:                                             971.46560109238692
  Exchange-correlation energy:                               -214.89924523922318

  Total energy:                                              -902.82165688385703

 ENERGY| Total FORCE_EVAL ( QS ) energy [hartree]           -902.821657087397853

 OPT| **************************************************************************
 OPT| Step number                                                            102
 OPT| Optimization method                                                  LBFGS
 OPT| Total energy [hartree]                                     -902.8216570874
 OPT| Effective energy change [hartree]                            -0.0001715147
 OPT| Decrease in energy                                                     YES
 OPT| Used time [s]                                                       43.799
 OPT|
 OPT| Maximum step size                                             0.0877273732
 OPT| Convergence limit for maximum step size                       0.0030000000
 OPT| Maximum step size is converged                                          NO
 OPT|
 OPT| RMS step size                                                 0.0093185285
 OPT| Convergence limit for RMS step size                           0.0015000000
 OPT| RMS step size is converged                                              NO
 OPT|
 OPT| Maximum gradient                                              0.0058052479
 OPT| Convergence limit for maximum gradient                        0.0010000000
 OPT| Maximum gradient is converged                                           NO
 OPT|
 OPT| RMS gradient                                                  0.0010876478
 OPT| Convergence limit for RMS gradient                            0.0003000000
 OPT| RMS gradient is converged                                               NO
 OPT| **************************************************************************
 OPT| Estimated peak process memory after this step [MiB]                   1798

 --------------------------
 OPTIMIZATION STEP:    103
 --------------------------

 Number of electrons:                                                        408
 Number of occupied orbitals:                                                204
 Number of molecular orbitals:                                               204

 Number of orbital functions:                                                314
 Number of independent orbital functions:                                    314

 Extrapolation method: ASPC


 SCF WAVEFUNCTION OPTIMIZATION

  ----------------------------------- OT ---------------------------------------
  Minimizer      : DIIS                : direct inversion
                                         in the iterative subspace
                                         using   7 DIIS vectors
                                         safer DIIS on
  Preconditioner : FULL_SINGLE_INVERSE : inversion of 
                                         H + eS - 2*(Sc)(c^T*H*c+const)(Sc)^T
  Precond_solver : DEFAULT
  stepsize       :    0.08000000                  energy_gap     :    0.08000000
  eps_taylor     :   0.10000E-15                  max_taylor     :             4
  ----------------------------------- OT ---------------------------------------

  Step     Update method      Time    Convergence         Total energy    Change
  ------------------------------------------------------------------------------
     1 OT DIIS     0.80E-01    4.8     0.00019640      -902.8216856228 -9.03E+02
     2 OT DIIS     0.80E-01    6.0     0.00010324      -902.8218265356 -1.41E-04
     3 OT DIIS     0.80E-01    6.0     0.00005729      -902.8218753445 -4.88E-05
     4 OT DIIS     0.80E-01    6.0     0.00002298      -902.8218888498 -1.35E-05
     5 OT DIIS     0.80E-01    6.0     0.00001008      -902.8218911926 -2.34E-06
     6 OT DIIS     0.80E-01    6.0     0.00000503      -902.8218916010 -4.08E-07

  *** SCF run converged in     6 steps ***


  Electronic density on regular grids:       -407.9999941124        0.0000058876
  Core density on regular grids:              407.9999999748       -0.0000000252
  Total charge density on r-space grids:        0.0000058624
  Total charge density g-space grids:           0.0000058624

  Overlap energy of the core charge distribution:               0.00000006366513
  Self energy of the core charge distribution:              -2342.23014539452743
  Core Hamiltonian energy:                                    682.84157206011969
  Hartree energy:                                             971.46522570097386
  Exchange-correlation energy:                               -214.89854403123459

  Total energy:                                              -902.82189160100336

 ENERGY| Total FORCE_EVAL ( QS ) energy [hartree]           -902.821891681882789

 OPT| **************************************************************************
 OPT| Step number                                                            103
 OPT| Optimization method                                                  LBFGS
 OPT| Total energy [hartree]                                     -902.8218916819
 OPT| Effective energy change [hartree]                            -0.0002345945
 OPT| Decrease in energy                                                     YES
 OPT| Used time [s]                                                       43.784
 OPT|
 OPT| Maximum step size                                             0.0372404452
 OPT| Convergence limit for maximum step size                       0.0030000000
 OPT| Maximum step size is converged                                          NO
 OPT|
 OPT| RMS step size                                                 0.0043707039
 OPT| Convergence limit for RMS step size                           0.0015000000
 OPT| RMS step size is converged                                              NO
 OPT|
 OPT| Maximum gradient                                              0.0035253661
 OPT| Convergence limit for maximum gradient                        0.0010000000
 OPT| Maximum gradient is converged                                           NO
 OPT|
 OPT| RMS gradient                                                  0.0006993939
 OPT| Convergence limit for RMS gradient                            0.0003000000
 OPT| RMS gradient is converged                                               NO
 OPT| **************************************************************************
 OPT| Estimated peak process memory after this step [MiB]                   1798

 --------------------------
 OPTIMIZATION STEP:    104
 --------------------------

 Number of electrons:                                                        408
 Number of occupied orbitals:                                                204
 Number of molecular orbitals:                                               204

 Number of orbital functions:                                                314
 Number of independent orbital functions:                                    314

 Extrapolation method: ASPC


 SCF WAVEFUNCTION OPTIMIZATION

  ----------------------------------- OT ---------------------------------------
  Minimizer      : DIIS                : direct inversion
                                         in the iterative subspace
                                         using   7 DIIS vectors
                                         safer DIIS on
  Preconditioner : FULL_SINGLE_INVERSE : inversion of 
                                         H + eS - 2*(Sc)(c^T*H*c+const)(Sc)^T
  Precond_solver : DEFAULT
  stepsize       :    0.08000000                  energy_gap     :    0.08000000
  eps_taylor     :   0.10000E-15                  max_taylor     :             4
  ----------------------------------- OT ---------------------------------------

  Step     Update method      Time    Convergence         Total energy    Change
  ------------------------------------------------------------------------------
     1 OT DIIS     0.80E-01    4.8     0.00022028      -902.8219247971 -9.03E+02
     2 OT DIIS     0.80E-01    6.0     0.00012559      -902.8221118034 -1.87E-04
     3 OT DIIS     0.80E-01    6.0     0.00006482      -902.8221941642 -8.24E-05
     4 OT DIIS     0.80E-01    6.0     0.00002276      -902.8222115288 -1.74E-05
     5 OT DIIS     0.80E-01    6.0     0.00001023      -902.8222137329 -2.20E-06
     6 OT DIIS     0.80E-01    6.0     0.00000525      -902.8222141481 -4.15E-07

  *** SCF run converged in     6 steps ***


  Electronic density on regular grids:       -407.9999941192        0.0000058808
  Core density on regular grids:              407.9999999748       -0.0000000252
  Total charge density on r-space grids:        0.0000058557
  Total charge density g-space grids:           0.0000058557

  Overlap energy of the core charge distribution:               0.00000006381076
  Self energy of the core charge distribution:              -2342.23014539452743
  Core Hamiltonian energy:                                    682.85208393777475
  Hartree energy:                                             971.45542227507303
  Exchange-correlation energy:                               -214.89957503020639

  Total energy:                                              -902.82221414807543

 ENERGY| Total FORCE_EVAL ( QS ) energy [hartree]           -902.822214249397007

 OPT| **************************************************************************
 OPT| Step number                                                            104
 OPT| Optimization method                                                  LBFGS
 OPT| Total energy [hartree]                                     -902.8222142494
 OPT| Effective energy change [hartree]                            -0.0003225675
 OPT| Decrease in energy                                                     YES
 OPT| Used time [s]                                                       43.804
 OPT|
 OPT| Maximum step size                                             0.0464513707
 OPT| Convergence limit for maximum step size                       0.0030000000
 OPT| Maximum step size is converged                                          NO
 OPT|
 OPT| RMS step size                                                 0.0061158160
 OPT| Convergence limit for RMS step size                           0.0015000000
 OPT| RMS step size is converged                                              NO
 OPT|
 OPT| Maximum gradient                                              0.0055388976
 OPT| Convergence limit for maximum gradient                        0.0010000000
 OPT| Maximum gradient is converged                                           NO
 OPT|
 OPT| RMS gradient                                                  0.0008760116
 OPT| Convergence limit for RMS gradient                            0.0003000000
 OPT| RMS gradient is converged                                               NO
 OPT| **************************************************************************
 OPT| Estimated peak process memory after this step [MiB]                   1798

 --------------------------
 OPTIMIZATION STEP:    105
 --------------------------

 Number of electrons:                                                        408
 Number of occupied orbitals:                                                204
 Number of molecular orbitals:                                               204

 Number of orbital functions:                                                314
 Number of independent orbital functions:                                    314

 Extrapolation method: ASPC


 SCF WAVEFUNCTION OPTIMIZATION

  ----------------------------------- OT ---------------------------------------
  Minimizer      : DIIS                : direct inversion
                                         in the iterative subspace
                                         using   7 DIIS vectors
                                         safer DIIS on
  Preconditioner : FULL_SINGLE_INVERSE : inversion of 
                                         H + eS - 2*(Sc)(c^T*H*c+const)(Sc)^T
  Precond_solver : DEFAULT
  stepsize       :    0.08000000                  energy_gap     :    0.08000000
  eps_taylor     :   0.10000E-15                  max_taylor     :             4
  ----------------------------------- OT ---------------------------------------

  Step     Update method      Time    Convergence         Total energy    Change
  ------------------------------------------------------------------------------
     1 OT DIIS     0.80E-01    4.8     0.00047679      -902.8204772615 -9.03E+02
     2 OT DIIS     0.80E-01    6.0     0.00028919      -902.8213861186 -9.09E-04
     3 OT DIIS     0.80E-01    6.0     0.00013151      -902.8218886890 -5.03E-04
     4 OT DIIS     0.80E-01    6.0     0.00005373      -902.8219745385 -8.58E-05
     5 OT DIIS     0.80E-01    6.0     0.00002360      -902.8219846432 -1.01E-05
     6 OT DIIS     0.80E-01    6.0     0.00001141      -902.8219866671 -2.02E-06
     7 OT DIIS     0.80E-01    6.0     0.00000528      -902.8219871374 -4.70E-07

  *** SCF run converged in     7 steps ***


  Electronic density on regular grids:       -407.9999942564        0.0000057436
  Core density on regular grids:              407.9999999747       -0.0000000253
  Total charge density on r-space grids:        0.0000057183
  Total charge density g-space grids:           0.0000057183

  Overlap energy of the core charge distribution:               0.00000005950518
  Self energy of the core charge distribution:              -2342.23014539452743
  Core Hamiltonian energy:                                    682.83623302249180
  Hartree energy:                                             971.46326809373625
  Exchange-correlation energy:                               -214.89134291861103

  Total energy:                                              -902.82198713740536

 ENERGY| Total FORCE_EVAL ( QS ) energy [hartree]           -902.821987269407828

 Number of electrons:                                                        408
 Number of occupied orbitals:                                                204
 Number of molecular orbitals:                                               204

 Number of orbital functions:                                                314
 Number of independent orbital functions:                                    314

 Extrapolation method: ASPC


 SCF WAVEFUNCTION OPTIMIZATION

  ----------------------------------- OT ---------------------------------------
  Minimizer      : DIIS                : direct inversion
                                         in the iterative subspace
                                         using   7 DIIS vectors
                                         safer DIIS on
  Preconditioner : FULL_SINGLE_INVERSE : inversion of 
                                         H + eS - 2*(Sc)(c^T*H*c+const)(Sc)^T
  Precond_solver : DEFAULT
  stepsize       :    0.08000000                  energy_gap     :    0.08000000
  eps_taylor     :   0.10000E-15                  max_taylor     :             4
  ----------------------------------- OT ---------------------------------------

  Step     Update method      Time    Convergence         Total energy    Change
  ------------------------------------------------------------------------------
     1 OT DIIS     0.80E-01    4.8     0.00113928      -902.8132033722 -9.03E+02
     2 OT DIIS     0.80E-01    6.0     0.00071421      -902.8185281341 -5.32E-03
     3 OT DIIS     0.80E-01    6.0     0.00022979      -902.8219788568 -3.45E-03
     4 OT DIIS     0.80E-01    6.0     0.00008105      -902.8222874719 -3.09E-04
     5 OT DIIS     0.80E-01    6.0     0.00004382      -902.8223121079 -2.46E-05
     6 OT DIIS     0.80E-01    6.0     0.00001862      -902.8223194526 -7.34E-06
     7 OT DIIS     0.80E-01    6.0     0.00000988      -902.8223210750 -1.62E-06

  *** SCF run converged in     7 steps ***


  Electronic density on regular grids:       -407.9999941530        0.0000058470
  Core density on regular grids:              407.9999999748       -0.0000000252
  Total charge density on r-space grids:        0.0000058218
  Total charge density g-space grids:           0.0000058218

  Overlap energy of the core charge distribution:               0.00000006206713
  Self energy of the core charge distribution:              -2342.23014539452743
  Core Hamiltonian energy:                                    682.84674755942569
  Hartree energy:                                             971.45791501085023
  Exchange-correlation energy:                               -214.89683831283335

  Total energy:                                              -902.82232107501773

 ENERGY| Total FORCE_EVAL ( QS ) energy [hartree]           -902.822321526777728

 OPT| **************************************************************************
 OPT| Step number                                                            105
 OPT| Optimization method                                                  LBFGS
 OPT| Total energy [hartree]                                     -902.8223215268
 OPT| Effective energy change [hartree]                            -0.0001072774
 OPT| Decrease in energy                                                     YES
 OPT| Used time [s]                                                       99.640
 OPT|
 OPT| Maximum step size                                             0.0491103110
 OPT| Convergence limit for maximum step size                       0.0030000000
 OPT| Maximum step size is converged                                          NO
 OPT|
 OPT| RMS step size                                                 0.0049992479
 OPT| Convergence limit for RMS step size                           0.0015000000
 OPT| RMS step size is converged                                              NO
 OPT|
 OPT| Maximum gradient                                              0.0035610581
 OPT| Convergence limit for maximum gradient                        0.0010000000
 OPT| Maximum gradient is converged                                           NO
 OPT|
 OPT| RMS gradient                                                  0.0007664007
 OPT| Convergence limit for RMS gradient                            0.0003000000
 OPT| RMS gradient is converged                                               NO
 OPT| **************************************************************************
 OPT| Estimated peak process memory after this step [MiB]                   1798

 --------------------------
 OPTIMIZATION STEP:    106
 --------------------------

 Number of electrons:                                                        408
 Number of occupied orbitals:                                                204
 Number of molecular orbitals:                                               204

 Number of orbital functions:                                                314
 Number of independent orbital functions:                                    314

 Extrapolation method: ASPC


 SCF WAVEFUNCTION OPTIMIZATION

  ----------------------------------- OT ---------------------------------------
  Minimizer      : DIIS                : direct inversion
                                         in the iterative subspace
                                         using   7 DIIS vectors
                                         safer DIIS on
  Preconditioner : FULL_SINGLE_INVERSE : inversion of 
                                         H + eS - 2*(Sc)(c^T*H*c+const)(Sc)^T
  Precond_solver : DEFAULT
  stepsize       :    0.08000000                  energy_gap     :    0.08000000
  eps_taylor     :   0.10000E-15                  max_taylor     :             4
  ----------------------------------- OT ---------------------------------------

  Step     Update method      Time    Convergence         Total energy    Change
  ------------------------------------------------------------------------------
     1 OT DIIS     0.80E-01    4.8     0.00117403      -902.8125325961 -9.03E+02
     2 OT DIIS     0.80E-01    6.0     0.00075008      -902.8182836801 -5.75E-03
     3 OT DIIS     0.80E-01    6.0     0.00018158      -902.8222986127 -4.01E-03
     4 OT DIIS     0.80E-01    6.0     0.00009235      -902.8224294990 -1.31E-04
     5 OT DIIS     0.80E-01    6.0     0.00004239      -902.8224582209 -2.87E-05
     6 OT DIIS     0.80E-01    6.0     0.00002027      -902.8224655100 -7.29E-06
     7 OT DIIS     0.80E-01    6.0     0.00001023      -902.8224674315 -1.92E-06
     8 OT DIIS     0.80E-01    6.0     0.00000449      -902.8224678551 -4.24E-07

  *** SCF run converged in     8 steps ***


  Electronic density on regular grids:       -407.9999941429        0.0000058571
  Core density on regular grids:              407.9999999748       -0.0000000252
  Total charge density on r-space grids:        0.0000058319
  Total charge density g-space grids:           0.0000058319

  Overlap energy of the core charge distribution:               0.00000006245700
  Self energy of the core charge distribution:              -2342.23014539452743
  Core Hamiltonian energy:                                    682.85171703668516
  Hartree energy:                                             971.45419699063541
  Exchange-correlation energy:                               -214.89823655037665

  Total energy:                                              -902.82246785512666

 ENERGY| Total FORCE_EVAL ( QS ) energy [hartree]           -902.822467940305387

 OPT| **************************************************************************
 OPT| Step number                                                            106
 OPT| Optimization method                                                  LBFGS
 OPT| Total energy [hartree]                                     -902.8224679403
 OPT| Effective energy change [hartree]                            -0.0001464135
 OPT| Decrease in energy                                                     YES
 OPT| Used time [s]                                                       55.845
 OPT|
 OPT| Maximum step size                                             0.0138622846
 OPT| Convergence limit for maximum step size                       0.0030000000
 OPT| Maximum step size is converged                                          NO
 OPT|
 OPT| RMS step size                                                 0.0019229067
 OPT| Convergence limit for RMS step size                           0.0015000000
 OPT| RMS step size is converged                                              NO
 OPT|
 OPT| Maximum gradient                                              0.0036565338
 OPT| Convergence limit for maximum gradient                        0.0010000000
 OPT| Maximum gradient is converged                                           NO
 OPT|
 OPT| RMS gradient                                                  0.0005528020
 OPT| Convergence limit for RMS gradient                            0.0003000000
 OPT| RMS gradient is converged                                               NO
 OPT| **************************************************************************
 OPT| Estimated peak process memory after this step [MiB]                   1798

 --------------------------
 OPTIMIZATION STEP:    107
 --------------------------

 Number of electrons:                                                        408
 Number of occupied orbitals:                                                204
 Number of molecular orbitals:                                               204

 Number of orbital functions:                                                314
 Number of independent orbital functions:                                    314

 Extrapolation method: ASPC


 SCF WAVEFUNCTION OPTIMIZATION

  ----------------------------------- OT ---------------------------------------
  Minimizer      : DIIS                : direct inversion
                                         in the iterative subspace
                                         using   7 DIIS vectors
                                         safer DIIS on
  Preconditioner : FULL_SINGLE_INVERSE : inversion of 
                                         H + eS - 2*(Sc)(c^T*H*c+const)(Sc)^T
  Precond_solver : DEFAULT
  stepsize       :    0.08000000                  energy_gap     :    0.08000000
  eps_taylor     :   0.10000E-15                  max_taylor     :             4
  ----------------------------------- OT ---------------------------------------

  Step     Update method      Time    Convergence         Total energy    Change
  ------------------------------------------------------------------------------
     1 OT DIIS     0.80E-01    4.8     0.00050840      -902.8208809124 -9.03E+02
     2 OT DIIS     0.80E-01    6.0     0.00031852      -902.8219428332 -1.06E-03
     3 OT DIIS     0.80E-01    6.0     0.00010735      -902.8226263770 -6.84E-04
     4 OT DIIS     0.80E-01    6.0     0.00004460      -902.8226806449 -5.43E-05
     5 OT DIIS     0.80E-01    6.0     0.00001987      -902.8226874830 -6.84E-06
     6 OT DIIS     0.80E-01    6.0     0.00000891      -902.8226892235 -1.74E-06

  *** SCF run converged in     6 steps ***


  Electronic density on regular grids:       -407.9999941139        0.0000058861
  Core density on regular grids:              407.9999999748       -0.0000000252
  Total charge density on r-space grids:        0.0000058609
  Total charge density g-space grids:           0.0000058609

  Overlap energy of the core charge distribution:               0.00000006229790
  Self energy of the core charge distribution:              -2342.23014539452743
  Core Hamiltonian energy:                                    682.85412550292654
  Hartree energy:                                             971.45160048478442
  Exchange-correlation energy:                               -214.89826987898007

  Total energy:                                              -902.82268922349840

 ENERGY| Total FORCE_EVAL ( QS ) energy [hartree]           -902.822689568651413

 OPT| **************************************************************************
 OPT| Step number                                                            107
 OPT| Optimization method                                                  LBFGS
 OPT| Total energy [hartree]                                     -902.8226895687
 OPT| Effective energy change [hartree]                            -0.0002216283
 OPT| Decrease in energy                                                     YES
 OPT| Used time [s]                                                       43.817
 OPT|
 OPT| Maximum step size                                             0.0436616616
 OPT| Convergence limit for maximum step size                       0.0030000000
 OPT| Maximum step size is converged                                          NO
 OPT|
 OPT| RMS step size                                                 0.0056088093
 OPT| Convergence limit for RMS step size                           0.0015000000
 OPT| RMS step size is converged                                              NO
 OPT|
 OPT| Maximum gradient                                              0.0023275758
 OPT| Convergence limit for maximum gradient                        0.0010000000
 OPT| Maximum gradient is converged                                           NO
 OPT|
 OPT| RMS gradient                                                  0.0005221940
 OPT| Convergence limit for RMS gradient                            0.0003000000
 OPT| RMS gradient is converged                                               NO
 OPT| **************************************************************************
 OPT| Estimated peak process memory after this step [MiB]                   1798

 --------------------------
 OPTIMIZATION STEP:    108
 --------------------------

 Number of electrons:                                                        408
 Number of occupied orbitals:                                                204
 Number of molecular orbitals:                                               204

 Number of orbital functions:                                                314
 Number of independent orbital functions:                                    314

 Extrapolation method: ASPC


 SCF WAVEFUNCTION OPTIMIZATION

  ----------------------------------- OT ---------------------------------------
  Minimizer      : DIIS                : direct inversion
                                         in the iterative subspace
                                         using   7 DIIS vectors
                                         safer DIIS on
  Preconditioner : FULL_SINGLE_INVERSE : inversion of 
                                         H + eS - 2*(Sc)(c^T*H*c+const)(Sc)^T
  Precond_solver : DEFAULT
  stepsize       :    0.08000000                  energy_gap     :    0.08000000
  eps_taylor     :   0.10000E-15                  max_taylor     :             4
  ----------------------------------- OT ---------------------------------------

  Step     Update method      Time    Convergence         Total energy    Change
  ------------------------------------------------------------------------------
     1 OT DIIS     0.80E-01    4.8     0.00012988      -902.8227391339 -9.03E+02
     2 OT DIIS     0.80E-01    6.0     0.00007488      -902.8228026593 -6.35E-05
     3 OT DIIS     0.80E-01    6.0     0.00004596      -902.8228287325 -2.61E-05
     4 OT DIIS     0.80E-01    6.0     0.00001705      -902.8228378548 -9.12E-06
     5 OT DIIS     0.80E-01    6.0     0.00000792      -902.8228390395 -1.18E-06

  *** SCF run converged in     5 steps ***


  Electronic density on regular grids:       -407.9999940888        0.0000059112
  Core density on regular grids:              407.9999999747       -0.0000000253
  Total charge density on r-space grids:        0.0000058860
  Total charge density g-space grids:           0.0000058860

  Overlap energy of the core charge distribution:               0.00000006314702
  Self energy of the core charge distribution:              -2342.23014539452743
  Core Hamiltonian energy:                                    682.85782671486970
  Hartree energy:                                             971.44884434452274
  Exchange-correlation energy:                               -214.89936476746254

  Total energy:                                              -902.82283903945051

 ENERGY| Total FORCE_EVAL ( QS ) energy [hartree]           -902.822839246502326

 OPT| **************************************************************************
 OPT| Step number                                                            108
 OPT| Optimization method                                                  LBFGS
 OPT| Total energy [hartree]                                     -902.8228392465
 OPT| Effective energy change [hartree]                            -0.0001496779
 OPT| Decrease in energy                                                     YES
 OPT| Used time [s]                                                       37.787
 OPT|
 OPT| Maximum step size                                             0.0448604268
 OPT| Convergence limit for maximum step size                       0.0030000000
 OPT| Maximum step size is converged                                          NO
 OPT|
 OPT| RMS step size                                                 0.0059813004
 OPT| Convergence limit for RMS step size                           0.0015000000
 OPT| RMS step size is converged                                              NO
 OPT|
 OPT| Maximum gradient                                              0.0028444181
 OPT| Convergence limit for maximum gradient                        0.0010000000
 OPT| Maximum gradient is converged                                           NO
 OPT|
 OPT| RMS gradient                                                  0.0006049931
 OPT| Convergence limit for RMS gradient                            0.0003000000
 OPT| RMS gradient is converged                                               NO
 OPT| **************************************************************************
 OPT| Estimated peak process memory after this step [MiB]                   1798

 --------------------------
 OPTIMIZATION STEP:    109
 --------------------------

 Number of electrons:                                                        408
 Number of occupied orbitals:                                                204
 Number of molecular orbitals:                                               204

 Number of orbital functions:                                                314
 Number of independent orbital functions:                                    314

 Extrapolation method: ASPC


 SCF WAVEFUNCTION OPTIMIZATION

  ----------------------------------- OT ---------------------------------------
  Minimizer      : DIIS                : direct inversion
                                         in the iterative subspace
                                         using   7 DIIS vectors
                                         safer DIIS on
  Preconditioner : FULL_SINGLE_INVERSE : inversion of 
                                         H + eS - 2*(Sc)(c^T*H*c+const)(Sc)^T
  Precond_solver : DEFAULT
  stepsize       :    0.08000000                  energy_gap     :    0.08000000
  eps_taylor     :   0.10000E-15                  max_taylor     :             4
  ----------------------------------- OT ---------------------------------------

  Step     Update method      Time    Convergence         Total energy    Change
  ------------------------------------------------------------------------------
     1 OT DIIS     0.80E-01    4.8     0.00010477      -902.8229508846 -9.03E+02
     2 OT DIIS     0.80E-01    6.0     0.00005156      -902.8229890620 -3.82E-05
     3 OT DIIS     0.80E-01    6.0     0.00003174      -902.8229997126 -1.07E-05
     4 OT DIIS     0.80E-01    6.0     0.00001445      -902.8230031873 -3.47E-06
     5 OT DIIS     0.80E-01    6.0     0.00000611      -902.8230040221 -8.35E-07

  *** SCF run converged in     5 steps ***


  Electronic density on regular grids:       -407.9999940578        0.0000059422
  Core density on regular grids:              407.9999999747       -0.0000000253
  Total charge density on r-space grids:        0.0000059169
  Total charge density g-space grids:           0.0000059169

  Overlap energy of the core charge distribution:               0.00000006253988
  Self energy of the core charge distribution:              -2342.23014539452743
  Core Hamiltonian energy:                                    682.85668607051059
  Hartree energy:                                             971.44900081477067
  Exchange-correlation energy:                               -214.89854557542347

  Total energy:                                              -902.82300402212968

 ENERGY| Total FORCE_EVAL ( QS ) energy [hartree]           -902.823004192495318

 OPT| **************************************************************************
 OPT| Step number                                                            109
 OPT| Optimization method                                                  LBFGS
 OPT| Total energy [hartree]                                     -902.8230041925
 OPT| Effective energy change [hartree]                            -0.0001649460
 OPT| Decrease in energy                                                     YES
 OPT| Used time [s]                                                       37.786
 OPT|
 OPT| Maximum step size                                             0.0427806248
 OPT| Convergence limit for maximum step size                       0.0030000000
 OPT| Maximum step size is converged                                          NO
 OPT|
 OPT| RMS step size                                                 0.0056849349
 OPT| Convergence limit for RMS step size                           0.0015000000
 OPT| RMS step size is converged                                              NO
 OPT|
 OPT| Maximum gradient                                              0.0019141611
 OPT| Convergence limit for maximum gradient                        0.0010000000
 OPT| Maximum gradient is converged                                           NO
 OPT|
 OPT| RMS gradient                                                  0.0004667166
 OPT| Convergence limit for RMS gradient                            0.0003000000
 OPT| RMS gradient is converged                                               NO
 OPT| **************************************************************************
 OPT| Estimated peak process memory after this step [MiB]                   1798

 --------------------------
 OPTIMIZATION STEP:    110
 --------------------------

 Number of electrons:                                                        408
 Number of occupied orbitals:                                                204
 Number of molecular orbitals:                                               204

 Number of orbital functions:                                                314
 Number of independent orbital functions:                                    314

 Extrapolation method: ASPC


 SCF WAVEFUNCTION OPTIMIZATION

  ----------------------------------- OT ---------------------------------------
  Minimizer      : DIIS                : direct inversion
                                         in the iterative subspace
                                         using   7 DIIS vectors
                                         safer DIIS on
  Preconditioner : FULL_SINGLE_INVERSE : inversion of 
                                         H + eS - 2*(Sc)(c^T*H*c+const)(Sc)^T
  Precond_solver : DEFAULT
  stepsize       :    0.08000000                  energy_gap     :    0.08000000
  eps_taylor     :   0.10000E-15                  max_taylor     :             4
  ----------------------------------- OT ---------------------------------------

  Step     Update method      Time    Convergence         Total energy    Change
  ------------------------------------------------------------------------------
     1 OT DIIS     0.80E-01    4.8     0.00014347      -902.8230767566 -9.03E+02
     2 OT DIIS     0.80E-01    6.0     0.00008358      -902.8231562556 -7.95E-05
     3 OT DIIS     0.80E-01    6.0     0.00004964      -902.8231922316 -3.60E-05
     4 OT DIIS     0.80E-01    6.0     0.00002038      -902.8232017863 -9.55E-06
     5 OT DIIS     0.80E-01    6.0     0.00000812      -902.8232034903 -1.70E-06

  *** SCF run converged in     5 steps ***


  Electronic density on regular grids:       -407.9999940123        0.0000059877
  Core density on regular grids:              407.9999999749       -0.0000000251
  Total charge density on r-space grids:        0.0000059625
  Total charge density g-space grids:           0.0000059625

  Overlap energy of the core charge distribution:               0.00000006235849
  Self energy of the core charge distribution:              -2342.23014539452743
  Core Hamiltonian energy:                                    682.85587367242863
  Hartree energy:                                             971.44936528155438
  Exchange-correlation energy:                               -214.89829711216180

  Total energy:                                              -902.82320349034774

 ENERGY| Total FORCE_EVAL ( QS ) energy [hartree]           -902.823203765121207

 OPT| **************************************************************************
 OPT| Step number                                                            110
 OPT| Optimization method                                                  LBFGS
 OPT| Total energy [hartree]                                     -902.8232037651
 OPT| Effective energy change [hartree]                            -0.0001995726
 OPT| Decrease in energy                                                     YES
 OPT| Used time [s]                                                       37.764
 OPT|
 OPT| Maximum step size                                             0.0684858940
 OPT| Convergence limit for maximum step size                       0.0030000000
 OPT| Maximum step size is converged                                          NO
 OPT|
 OPT| RMS step size                                                 0.0088211753
 OPT| Convergence limit for RMS step size                           0.0015000000
 OPT| RMS step size is converged                                              NO
 OPT|
 OPT| Maximum gradient                                              0.0027704629
 OPT| Convergence limit for maximum gradient                        0.0010000000
 OPT| Maximum gradient is converged                                           NO
 OPT|
 OPT| RMS gradient                                                  0.0005617230
 OPT| Convergence limit for RMS gradient                            0.0003000000
 OPT| RMS gradient is converged                                               NO
 OPT| **************************************************************************
 OPT| Estimated peak process memory after this step [MiB]                   1798

 --------------------------
 OPTIMIZATION STEP:    111
 --------------------------

 Number of electrons:                                                        408
 Number of occupied orbitals:                                                204
 Number of molecular orbitals:                                               204

 Number of orbital functions:                                                314
 Number of independent orbital functions:                                    314

 Extrapolation method: ASPC


 SCF WAVEFUNCTION OPTIMIZATION

  ----------------------------------- OT ---------------------------------------
  Minimizer      : DIIS                : direct inversion
                                         in the iterative subspace
                                         using   7 DIIS vectors
                                         safer DIIS on
  Preconditioner : FULL_SINGLE_INVERSE : inversion of 
                                         H + eS - 2*(Sc)(c^T*H*c+const)(Sc)^T
  Precond_solver : DEFAULT
  stepsize       :    0.08000000                  energy_gap     :    0.08000000
  eps_taylor     :   0.10000E-15                  max_taylor     :             4
  ----------------------------------- OT ---------------------------------------

  Step     Update method      Time    Convergence         Total energy    Change
  ------------------------------------------------------------------------------
     1 OT DIIS     0.80E-01    4.8     0.00020007      -902.8230498459 -9.03E+02
     2 OT DIIS     0.80E-01    6.0     0.00011686      -902.8232032354 -1.53E-04
     3 OT DIIS     0.80E-01    6.0     0.00007172      -902.8232705413 -6.73E-05
     4 OT DIIS     0.80E-01    6.0     0.00002858      -902.8232912330 -2.07E-05
     5 OT DIIS     0.80E-01    6.0     0.00001194      -902.8232944551 -3.22E-06
     6 OT DIIS     0.80E-01    6.0     0.00000554      -902.8232950419 -5.87E-07

  *** SCF run converged in     6 steps ***


  Electronic density on regular grids:       -407.9999939582        0.0000060418
  Core density on regular grids:              407.9999999750       -0.0000000250
  Total charge density on r-space grids:        0.0000060168
  Total charge density g-space grids:           0.0000060168

  Overlap energy of the core charge distribution:               0.00000006246313
  Self energy of the core charge distribution:              -2342.23014539452743
  Core Hamiltonian energy:                                    682.86007758520225
  Hartree energy:                                             971.44662998701665
  Exchange-correlation energy:                               -214.89985728209626

  Total energy:                                              -902.82329504194149

 ENERGY| Total FORCE_EVAL ( QS ) energy [hartree]           -902.823295164401088

 OPT| **************************************************************************
 OPT| Step number                                                            111
 OPT| Optimization method                                                  LBFGS
 OPT| Total energy [hartree]                                     -902.8232951644
 OPT| Effective energy change [hartree]                            -0.0000913993
 OPT| Decrease in energy                                                     YES
 OPT| Used time [s]                                                       43.788
 OPT|
 OPT| Maximum step size                                             0.0630206130
 OPT| Convergence limit for maximum step size                       0.0030000000
 OPT| Maximum step size is converged                                          NO
 OPT|
 OPT| RMS step size                                                 0.0077363516
 OPT| Convergence limit for RMS step size                           0.0015000000
 OPT| RMS step size is converged                                              NO
 OPT|
 OPT| Maximum gradient                                              0.0054704590
 OPT| Convergence limit for maximum gradient                        0.0010000000
 OPT| Maximum gradient is converged                                           NO
 OPT|
 OPT| RMS gradient                                                  0.0009845761
 OPT| Convergence limit for RMS gradient                            0.0003000000
 OPT| RMS gradient is converged                                               NO
 OPT| **************************************************************************
 OPT| Estimated peak process memory after this step [MiB]                   1798

 --------------------------
 OPTIMIZATION STEP:    112
 --------------------------

 Number of electrons:                                                        408
 Number of occupied orbitals:                                                204
 Number of molecular orbitals:                                               204

 Number of orbital functions:                                                314
 Number of independent orbital functions:                                    314

 Extrapolation method: ASPC


 SCF WAVEFUNCTION OPTIMIZATION

  ----------------------------------- OT ---------------------------------------
  Minimizer      : DIIS                : direct inversion
                                         in the iterative subspace
                                         using   7 DIIS vectors
                                         safer DIIS on
  Preconditioner : FULL_SINGLE_INVERSE : inversion of 
                                         H + eS - 2*(Sc)(c^T*H*c+const)(Sc)^T
  Precond_solver : DEFAULT
  stepsize       :    0.08000000                  energy_gap     :    0.08000000
  eps_taylor     :   0.10000E-15                  max_taylor     :             4
  ----------------------------------- OT ---------------------------------------

  Step     Update method      Time    Convergence         Total energy    Change
  ------------------------------------------------------------------------------
     1 OT DIIS     0.80E-01    4.8     0.00025487      -902.8230646419 -9.03E+02
     2 OT DIIS     0.80E-01    6.0     0.00014386      -902.8233082201 -2.44E-04
     3 OT DIIS     0.80E-01    6.0     0.00008500      -902.8234061736 -9.80E-05
     4 OT DIIS     0.80E-01    6.0     0.00003284      -902.8234381919 -3.20E-05
     5 OT DIIS     0.80E-01    6.0     0.00001479      -902.8234433537 -5.16E-06
     6 OT DIIS     0.80E-01    6.0     0.00000716      -902.8234442812 -9.27E-07

  *** SCF run converged in     6 steps ***


  Electronic density on regular grids:       -407.9999939510        0.0000060490
  Core density on regular grids:              407.9999999749       -0.0000000251
  Total charge density on r-space grids:        0.0000060240
  Total charge density g-space grids:           0.0000060240

  Overlap energy of the core charge distribution:               0.00000006253068
  Self energy of the core charge distribution:              -2342.23014539452743
  Core Hamiltonian energy:                                    682.86179683015939
  Hartree energy:                                             971.44555516338949
  Exchange-correlation energy:                               -214.90065094275033

  Total energy:                                              -902.82344428119836

 ENERGY| Total FORCE_EVAL ( QS ) energy [hartree]           -902.823444466844307

 OPT| **************************************************************************
 OPT| Step number                                                            112
 OPT| Optimization method                                                  LBFGS
 OPT| Total energy [hartree]                                     -902.8234444668
 OPT| Effective energy change [hartree]                            -0.0001493024
 OPT| Decrease in energy                                                     YES
 OPT| Used time [s]                                                       43.799
 OPT|
 OPT| Maximum step size                                             0.0039329307
 OPT| Convergence limit for maximum step size                       0.0030000000
 OPT| Maximum step size is converged                                          NO
 OPT|
 OPT| RMS step size                                                 0.0010389999
 OPT| Convergence limit for RMS step size                           0.0015000000
 OPT| RMS step size is converged                                             YES
 OPT|
 OPT| Maximum gradient                                              0.0018784007
 OPT| Convergence limit for maximum gradient                        0.0010000000
 OPT| Maximum gradient is converged                                           NO
 OPT|
 OPT| RMS gradient                                                  0.0004569812
 OPT| Convergence limit for RMS gradient                            0.0003000000
 OPT| RMS gradient is converged                                               NO
 OPT| **************************************************************************
 OPT| Estimated peak process memory after this step [MiB]                   1798

 --------------------------
 OPTIMIZATION STEP:    113
 --------------------------

 Number of electrons:                                                        408
 Number of occupied orbitals:                                                204
 Number of molecular orbitals:                                               204

 Number of orbital functions:                                                314
 Number of independent orbital functions:                                    314

 Extrapolation method: ASPC


 SCF WAVEFUNCTION OPTIMIZATION

  ----------------------------------- OT ---------------------------------------
  Minimizer      : DIIS                : direct inversion
                                         in the iterative subspace
                                         using   7 DIIS vectors
                                         safer DIIS on
  Preconditioner : FULL_SINGLE_INVERSE : inversion of 
                                         H + eS - 2*(Sc)(c^T*H*c+const)(Sc)^T
  Precond_solver : DEFAULT
  stepsize       :    0.08000000                  energy_gap     :    0.08000000
  eps_taylor     :   0.10000E-15                  max_taylor     :             4
  ----------------------------------- OT ---------------------------------------

  Step     Update method      Time    Convergence         Total energy    Change
  ------------------------------------------------------------------------------
     1 OT DIIS     0.80E-01    4.8     0.00033093      -902.8228250929 -9.03E+02
     2 OT DIIS     0.80E-01    6.0     0.00020209      -902.8232637955 -4.39E-04
     3 OT DIIS     0.80E-01    6.0     0.00010223      -902.8235030257 -2.39E-04
     4 OT DIIS     0.80E-01    6.0     0.00003409      -902.8235462707 -4.32E-05
     5 OT DIIS     0.80E-01    6.0     0.00001507      -902.8235515978 -5.33E-06
     6 OT DIIS     0.80E-01    6.0     0.00000739      -902.8235526261 -1.03E-06

  *** SCF run converged in     6 steps ***


  Electronic density on regular grids:       -407.9999939246        0.0000060754
  Core density on regular grids:              407.9999999750       -0.0000000250
  Total charge density on r-space grids:        0.0000060504
  Total charge density g-space grids:           0.0000060504

  Overlap energy of the core charge distribution:               0.00000006260760
  Self energy of the core charge distribution:              -2342.23014539452743
  Core Hamiltonian energy:                                    682.86450688547632
  Hartree energy:                                             971.44380755601640
  Exchange-correlation energy:                               -214.90172173569209

  Total energy:                                              -902.82355262611918

 ENERGY| Total FORCE_EVAL ( QS ) energy [hartree]           -902.823552851406248

 OPT| **************************************************************************
 OPT| Step number                                                            113
 OPT| Optimization method                                                  LBFGS
 OPT| Total energy [hartree]                                     -902.8235528514
 OPT| Effective energy change [hartree]                            -0.0001083846
 OPT| Decrease in energy                                                     YES
 OPT| Used time [s]                                                       43.775
 OPT|
 OPT| Maximum step size                                             0.0159474961
 OPT| Convergence limit for maximum step size                       0.0030000000
 OPT| Maximum step size is converged                                          NO
 OPT|
 OPT| RMS step size                                                 0.0020997531
 OPT| Convergence limit for RMS step size                           0.0015000000
 OPT| RMS step size is converged                                              NO
 OPT|
 OPT| Maximum gradient                                              0.0014765053
 OPT| Convergence limit for maximum gradient                        0.0010000000
 OPT| Maximum gradient is converged                                           NO
 OPT|
 OPT| RMS gradient                                                  0.0003768666
 OPT| Convergence limit for RMS gradient                            0.0003000000
 OPT| RMS gradient is converged                                               NO
 OPT| **************************************************************************
 OPT| Estimated peak process memory after this step [MiB]                   1798

 --------------------------
 OPTIMIZATION STEP:    114
 --------------------------

 Number of electrons:                                                        408
 Number of occupied orbitals:                                                204
 Number of molecular orbitals:                                               204

 Number of orbital functions:                                                314
 Number of independent orbital functions:                                    314

 Extrapolation method: ASPC


 SCF WAVEFUNCTION OPTIMIZATION

  ----------------------------------- OT ---------------------------------------
  Minimizer      : DIIS                : direct inversion
                                         in the iterative subspace
                                         using   7 DIIS vectors
                                         safer DIIS on
  Preconditioner : FULL_SINGLE_INVERSE : inversion of 
                                         H + eS - 2*(Sc)(c^T*H*c+const)(Sc)^T
  Precond_solver : DEFAULT
  stepsize       :    0.08000000                  energy_gap     :    0.08000000
  eps_taylor     :   0.10000E-15                  max_taylor     :             4
  ----------------------------------- OT ---------------------------------------

  Step     Update method      Time    Convergence         Total energy    Change
  ------------------------------------------------------------------------------
     1 OT DIIS     0.80E-01    4.8     0.00014959      -902.8234989958 -9.03E+02
     2 OT DIIS     0.80E-01    6.0     0.00009247      -902.8235894997 -9.05E-05
     3 OT DIIS     0.80E-01    6.0     0.00004597      -902.8236406052 -5.11E-05
     4 OT DIIS     0.80E-01    6.0     0.00001274      -902.8236483999 -7.79E-06
     5 OT DIIS     0.80E-01    6.0     0.00000603      -902.8236491621 -7.62E-07

  *** SCF run converged in     5 steps ***


  Electronic density on regular grids:       -407.9999938924        0.0000061076
  Core density on regular grids:              407.9999999749       -0.0000000251
  Total charge density on r-space grids:        0.0000060825
  Total charge density g-space grids:           0.0000060825

  Overlap energy of the core charge distribution:               0.00000006262281
  Self energy of the core charge distribution:              -2342.23014539452743
  Core Hamiltonian energy:                                    682.86750693819863
  Hartree energy:                                             971.44170842915412
  Exchange-correlation energy:                               -214.90271919752857

  Total energy:                                              -902.82364916208041

 ENERGY| Total FORCE_EVAL ( QS ) energy [hartree]           -902.823649327917451

 OPT| **************************************************************************
 OPT| Step number                                                            114
 OPT| Optimization method                                                  LBFGS
 OPT| Total energy [hartree]                                     -902.8236493279
 OPT| Effective energy change [hartree]                            -0.0000964765
 OPT| Decrease in energy                                                     YES
 OPT| Used time [s]                                                       37.789
 OPT|
 OPT| Maximum step size                                             0.0249659614
 OPT| Convergence limit for maximum step size                       0.0030000000
 OPT| Maximum step size is converged                                          NO
 OPT|
 OPT| RMS step size                                                 0.0029919372
 OPT| Convergence limit for RMS step size                           0.0015000000
 OPT| RMS step size is converged                                              NO
 OPT|
 OPT| Maximum gradient                                              0.0021249010
 OPT| Convergence limit for maximum gradient                        0.0010000000
 OPT| Maximum gradient is converged                                           NO
 OPT|
 OPT| RMS gradient                                                  0.0004230829
 OPT| Convergence limit for RMS gradient                            0.0003000000
 OPT| RMS gradient is converged                                               NO
 OPT| **************************************************************************
 OPT| Estimated peak process memory after this step [MiB]                   1798

 --------------------------
 OPTIMIZATION STEP:    115
 --------------------------

 Number of electrons:                                                        408
 Number of occupied orbitals:                                                204
 Number of molecular orbitals:                                               204

 Number of orbital functions:                                                314
 Number of independent orbital functions:                                    314

 Extrapolation method: ASPC


 SCF WAVEFUNCTION OPTIMIZATION

  ----------------------------------- OT ---------------------------------------
  Minimizer      : DIIS                : direct inversion
                                         in the iterative subspace
                                         using   7 DIIS vectors
                                         safer DIIS on
  Preconditioner : FULL_SINGLE_INVERSE : inversion of 
                                         H + eS - 2*(Sc)(c^T*H*c+const)(Sc)^T
  Precond_solver : DEFAULT
  stepsize       :    0.08000000                  energy_gap     :    0.08000000
  eps_taylor     :   0.10000E-15                  max_taylor     :             4
  ----------------------------------- OT ---------------------------------------

  Step     Update method      Time    Convergence         Total energy    Change
  ------------------------------------------------------------------------------
     1 OT DIIS     0.80E-01    4.8     0.00028560      -902.8231223803 -9.03E+02
     2 OT DIIS     0.80E-01    6.0     0.00017785      -902.8234576175 -3.35E-04
     3 OT DIIS     0.80E-01    6.0     0.00005822      -902.8236696815 -2.12E-04
     4 OT DIIS     0.80E-01    6.0     0.00002701      -902.8236825576 -1.29E-05
     5 OT DIIS     0.80E-01    6.0     0.00001148      -902.8236848875 -2.33E-06
     6 OT DIIS     0.80E-01    6.0     0.00000556      -902.8236855136 -6.26E-07

  *** SCF run converged in     6 steps ***


  Electronic density on regular grids:       -407.9999938543        0.0000061457
  Core density on regular grids:              407.9999999749       -0.0000000251
  Total charge density on r-space grids:        0.0000061206
  Total charge density g-space grids:           0.0000061206

  Overlap energy of the core charge distribution:               0.00000006123629
  Self energy of the core charge distribution:              -2342.23014539452743
  Core Hamiltonian energy:                                    682.85821736823539
  Hartree energy:                                             971.44796653322442
  Exchange-correlation energy:                               -214.89972408179074

  Total energy:                                              -902.82368551362219

 ENERGY| Total FORCE_EVAL ( QS ) energy [hartree]           -902.823685628834824

 OPT| **************************************************************************
 OPT| Step number                                                            115
 OPT| Optimization method                                                  LBFGS
 OPT| Total energy [hartree]                                     -902.8236856288
 OPT| Effective energy change [hartree]                            -0.0000363009
 OPT| Decrease in energy                                                     YES
 OPT| Used time [s]                                                       43.804
 OPT|
 OPT| Maximum step size                                             0.0886910917
 OPT| Convergence limit for maximum step size                       0.0030000000
 OPT| Maximum step size is converged                                          NO
 OPT|
 OPT| RMS step size                                                 0.0105545961
 OPT| Convergence limit for RMS step size                           0.0015000000
 OPT| RMS step size is converged                                              NO
 OPT|
 OPT| Maximum gradient                                              0.0097222430
 OPT| Convergence limit for maximum gradient                        0.0010000000
 OPT| Maximum gradient is converged                                           NO
 OPT|
 OPT| RMS gradient                                                  0.0010481273
 OPT| Convergence limit for RMS gradient                            0.0003000000
 OPT| RMS gradient is converged                                               NO
 OPT| **************************************************************************
 OPT| Estimated peak process memory after this step [MiB]                   1798

 --------------------------
 OPTIMIZATION STEP:    116
 --------------------------

 Number of electrons:                                                        408
 Number of occupied orbitals:                                                204
 Number of molecular orbitals:                                               204

 Number of orbital functions:                                                314
 Number of independent orbital functions:                                    314

 Extrapolation method: ASPC


 SCF WAVEFUNCTION OPTIMIZATION

  ----------------------------------- OT ---------------------------------------
  Minimizer      : DIIS                : direct inversion
                                         in the iterative subspace
                                         using   7 DIIS vectors
                                         safer DIIS on
  Preconditioner : FULL_SINGLE_INVERSE : inversion of 
                                         H + eS - 2*(Sc)(c^T*H*c+const)(Sc)^T
  Precond_solver : DEFAULT
  stepsize       :    0.08000000                  energy_gap     :    0.08000000
  eps_taylor     :   0.10000E-15                  max_taylor     :             4
  ----------------------------------- OT ---------------------------------------

  Step     Update method      Time    Convergence         Total energy    Change
  ------------------------------------------------------------------------------
     1 OT DIIS     0.80E-01    4.8     0.00066240      -902.8208074420 -9.03E+02
     2 OT DIIS     0.80E-01    6.0     0.00041175      -902.8226055664 -1.80E-03
     3 OT DIIS     0.80E-01    6.0     0.00013076      -902.8237413420 -1.14E-03
     4 OT DIIS     0.80E-01    6.0     0.00005627      -902.8238244356 -8.31E-05
     5 OT DIIS     0.80E-01    6.0     0.00002651      -902.8238351842 -1.07E-05
     6 OT DIIS     0.80E-01    6.0     0.00001118      -902.8238385243 -3.34E-06
     7 OT DIIS     0.80E-01    6.0     0.00000601      -902.8238390799 -5.56E-07

  *** SCF run converged in     7 steps ***


  Electronic density on regular grids:       -407.9999938576        0.0000061424
  Core density on regular grids:              407.9999999749       -0.0000000251
  Total charge density on r-space grids:        0.0000061173
  Total charge density g-space grids:           0.0000061173

  Overlap energy of the core charge distribution:               0.00000006228203
  Self energy of the core charge distribution:              -2342.23014539452743
  Core Hamiltonian energy:                                    682.86273585034485
  Hartree energy:                                             971.44521331711405
  Exchange-correlation energy:                               -214.90164291506414

  Total energy:                                              -902.82383907985036

 ENERGY| Total FORCE_EVAL ( QS ) energy [hartree]           -902.823839235916694

 OPT| **************************************************************************
 OPT| Step number                                                            116
 OPT| Optimization method                                                  LBFGS
 OPT| Total energy [hartree]                                     -902.8238392359
 OPT| Effective energy change [hartree]                            -0.0001536071
 OPT| Decrease in energy                                                     YES
 OPT| Used time [s]                                                       49.830
 OPT|
 OPT| Maximum step size                                             0.0180058993
 OPT| Convergence limit for maximum step size                       0.0030000000
 OPT| Maximum step size is converged                                          NO
 OPT|
 OPT| RMS step size                                                 0.0016883318
 OPT| Convergence limit for RMS step size                           0.0015000000
 OPT| RMS step size is converged                                              NO
 OPT|
 OPT| Maximum gradient                                              0.0015891088
 OPT| Convergence limit for maximum gradient                        0.0010000000
 OPT| Maximum gradient is converged                                           NO
 OPT|
 OPT| RMS gradient                                                  0.0003788802
 OPT| Convergence limit for RMS gradient                            0.0003000000
 OPT| RMS gradient is converged                                               NO
 OPT| **************************************************************************
 OPT| Estimated peak process memory after this step [MiB]                   1798

 --------------------------
 OPTIMIZATION STEP:    117
 --------------------------

 Number of electrons:                                                        408
 Number of occupied orbitals:                                                204
 Number of molecular orbitals:                                               204

 Number of orbital functions:                                                314
 Number of independent orbital functions:                                    314

 Extrapolation method: ASPC


 SCF WAVEFUNCTION OPTIMIZATION

  ----------------------------------- OT ---------------------------------------
  Minimizer      : DIIS                : direct inversion
                                         in the iterative subspace
                                         using   7 DIIS vectors
                                         safer DIIS on
  Preconditioner : FULL_SINGLE_INVERSE : inversion of 
                                         H + eS - 2*(Sc)(c^T*H*c+const)(Sc)^T
  Precond_solver : DEFAULT
  stepsize       :    0.08000000                  energy_gap     :    0.08000000
  eps_taylor     :   0.10000E-15                  max_taylor     :             4
  ----------------------------------- OT ---------------------------------------

  Step     Update method      Time    Convergence         Total energy    Change
  ------------------------------------------------------------------------------
     1 OT DIIS     0.80E-01    4.8     0.00059424      -902.8214294110 -9.03E+02
     2 OT DIIS     0.80E-01    6.0     0.00037067      -902.8228835168 -1.45E-03
     3 OT DIIS     0.80E-01    6.0     0.00010812      -902.8238175855 -9.34E-04
     4 OT DIIS     0.80E-01    6.0     0.00005414      -902.8238674144 -4.98E-05
     5 OT DIIS     0.80E-01    6.0     0.00002347      -902.8238765888 -9.17E-06
     6 OT DIIS     0.80E-01    6.0     0.00001090      -902.8238790828 -2.49E-06
     7 OT DIIS     0.80E-01    6.0     0.00000572      -902.8238795464 -4.64E-07

  *** SCF run converged in     7 steps ***


  Electronic density on regular grids:       -407.9999938619        0.0000061381
  Core density on regular grids:              407.9999999749       -0.0000000251
  Total charge density on r-space grids:        0.0000061130
  Total charge density g-space grids:           0.0000061130

  Overlap energy of the core charge distribution:               0.00000006210578
  Self energy of the core charge distribution:              -2342.23014539452743
  Core Hamiltonian energy:                                    682.86122778177491
  Hartree energy:                                             971.44611700123608
  Exchange-correlation energy:                               -214.90107899697364

  Total energy:                                              -902.82387954638432

 ENERGY| Total FORCE_EVAL ( QS ) energy [hartree]           -902.823879687015051

 OPT| **************************************************************************
 OPT| Step number                                                            117
 OPT| Optimization method                                                  LBFGS
 OPT| Total energy [hartree]                                     -902.8238796870
 OPT| Effective energy change [hartree]                            -0.0000404511
 OPT| Decrease in energy                                                     YES
 OPT| Used time [s]                                                       49.807
 OPT|
 OPT| Maximum step size                                             0.0113992406
 OPT| Convergence limit for maximum step size                       0.0030000000
 OPT| Maximum step size is converged                                          NO
 OPT|
 OPT| RMS step size                                                 0.0012778990
 OPT| Convergence limit for RMS step size                           0.0015000000
 OPT| RMS step size is converged                                             YES
 OPT|
 OPT| Maximum gradient                                              0.0013569324
 OPT| Convergence limit for maximum gradient                        0.0010000000
 OPT| Maximum gradient is converged                                           NO
 OPT|
 OPT| RMS gradient                                                  0.0002505266
 OPT| Convergence limit for RMS gradient                            0.0003000000
 OPT| RMS gradient is converged                                              YES
 OPT| **************************************************************************
 OPT| Estimated peak process memory after this step [MiB]                   1798

 --------------------------
 OPTIMIZATION STEP:    118
 --------------------------

 Number of electrons:                                                        408
 Number of occupied orbitals:                                                204
 Number of molecular orbitals:                                               204

 Number of orbital functions:                                                314
 Number of independent orbital functions:                                    314

 Extrapolation method: ASPC


 SCF WAVEFUNCTION OPTIMIZATION

  ----------------------------------- OT ---------------------------------------
  Minimizer      : DIIS                : direct inversion
                                         in the iterative subspace
                                         using   7 DIIS vectors
                                         safer DIIS on
  Preconditioner : FULL_SINGLE_INVERSE : inversion of 
                                         H + eS - 2*(Sc)(c^T*H*c+const)(Sc)^T
  Precond_solver : DEFAULT
  stepsize       :    0.08000000                  energy_gap     :    0.08000000
  eps_taylor     :   0.10000E-15                  max_taylor     :             4
  ----------------------------------- OT ---------------------------------------

  Step     Update method      Time    Convergence         Total energy    Change
  ------------------------------------------------------------------------------
     1 OT DIIS     0.80E-01    4.8     0.00020139      -902.8236710818 -9.03E+02
     2 OT DIIS     0.80E-01    6.0     0.00012130      -902.8238331979 -1.62E-04
     3 OT DIIS     0.80E-01    6.0     0.00005321      -902.8239223309 -8.91E-05
     4 OT DIIS     0.80E-01    6.0     0.00002424      -902.8239355274 -1.32E-05
     5 OT DIIS     0.80E-01    6.0     0.00000952      -902.8239372736 -1.75E-06

  *** SCF run converged in     5 steps ***


  Electronic density on regular grids:       -407.9999938794        0.0000061206
  Core density on regular grids:              407.9999999748       -0.0000000252
  Total charge density on r-space grids:        0.0000060954
  Total charge density g-space grids:           0.0000060954

  Overlap energy of the core charge distribution:               0.00000006192816
  Self energy of the core charge distribution:              -2342.23014539452743
  Core Hamiltonian energy:                                    682.85736808602610
  Hartree energy:                                             971.44870810144266
  Exchange-correlation energy:                               -214.89986812843009

  Total energy:                                              -902.82393727356077

 ENERGY| Total FORCE_EVAL ( QS ) energy [hartree]           -902.823937655506029

 OPT| **************************************************************************
 OPT| Step number                                                            118
 OPT| Optimization method                                                  LBFGS
 OPT| Total energy [hartree]                                     -902.8239376555
 OPT| Effective energy change [hartree]                            -0.0000579685
 OPT| Decrease in energy                                                     YES
 OPT| Used time [s]                                                       37.783
 OPT|
 OPT| Maximum step size                                             0.0356957400
 OPT| Convergence limit for maximum step size                       0.0030000000
 OPT| Maximum step size is converged                                          NO
 OPT|
 OPT| RMS step size                                                 0.0038464772
 OPT| Convergence limit for RMS step size                           0.0015000000
 OPT| RMS step size is converged                                              NO
 OPT|
 OPT| Maximum gradient                                              0.0016668019
 OPT| Convergence limit for maximum gradient                        0.0010000000
 OPT| Maximum gradient is converged                                           NO
 OPT|
 OPT| RMS gradient                                                  0.0002615600
 OPT| Convergence limit for RMS gradient                            0.0003000000
 OPT| RMS gradient is converged                                              YES
 OPT| **************************************************************************
 OPT| Estimated peak process memory after this step [MiB]                   1798

 --------------------------
 OPTIMIZATION STEP:    119
 --------------------------

 Number of electrons:                                                        408
 Number of occupied orbitals:                                                204
 Number of molecular orbitals:                                               204

 Number of orbital functions:                                                314
 Number of independent orbital functions:                                    314

 Extrapolation method: ASPC


 SCF WAVEFUNCTION OPTIMIZATION

  ----------------------------------- OT ---------------------------------------
  Minimizer      : DIIS                : direct inversion
                                         in the iterative subspace
                                         using   7 DIIS vectors
                                         safer DIIS on
  Preconditioner : FULL_SINGLE_INVERSE : inversion of 
                                         H + eS - 2*(Sc)(c^T*H*c+const)(Sc)^T
  Precond_solver : DEFAULT
  stepsize       :    0.08000000                  energy_gap     :    0.08000000
  eps_taylor     :   0.10000E-15                  max_taylor     :             4
  ----------------------------------- OT ---------------------------------------

  Step     Update method      Time    Convergence         Total energy    Change
  ------------------------------------------------------------------------------
     1 OT DIIS     0.80E-01    4.8     0.00005311      -902.8239652352 -9.03E+02
     2 OT DIIS     0.80E-01    6.0     0.00003316      -902.8239755610 -1.03E-05
     3 OT DIIS     0.80E-01    6.0     0.00002429      -902.8239794633 -3.90E-06
     4 OT DIIS     0.80E-01    6.0     0.00000778      -902.8239820328 -2.57E-06

  *** SCF run converged in     4 steps ***


  Electronic density on regular grids:       -407.9999939096        0.0000060904
  Core density on regular grids:              407.9999999747       -0.0000000253
  Total charge density on r-space grids:        0.0000060651
  Total charge density g-space grids:           0.0000060651

  Overlap energy of the core charge distribution:               0.00000006164650
  Self energy of the core charge distribution:              -2342.23014539452743
  Core Hamiltonian energy:                                    682.85296410903788
  Hartree energy:                                             971.45170404083831
  Exchange-correlation energy:                               -214.89850484975545

  Total energy:                                              -902.82398203276023

 ENERGY| Total FORCE_EVAL ( QS ) energy [hartree]           -902.823982347432320

 OPT| **************************************************************************
 OPT| Step number                                                            119
 OPT| Optimization method                                                  LBFGS
 OPT| Total energy [hartree]                                     -902.8239823474
 OPT| Effective energy change [hartree]                            -0.0000446919
 OPT| Decrease in energy                                                     YES
 OPT| Used time [s]                                                       31.737
 OPT|
 OPT| Maximum step size                                             0.0374146251
 OPT| Convergence limit for maximum step size                       0.0030000000
 OPT| Maximum step size is converged                                          NO
 OPT|
 OPT| RMS step size                                                 0.0039141319
 OPT| Convergence limit for RMS step size                           0.0015000000
 OPT| RMS step size is converged                                              NO
 OPT|
 OPT| Maximum gradient                                              0.0011920393
 OPT| Convergence limit for maximum gradient                        0.0010000000
 OPT| Maximum gradient is converged                                           NO
 OPT|
 OPT| RMS gradient                                                  0.0002614325
 OPT| Convergence limit for RMS gradient                            0.0003000000
 OPT| RMS gradient is converged                                              YES
 OPT| **************************************************************************
 OPT| Estimated peak process memory after this step [MiB]                   1798

 --------------------------
 OPTIMIZATION STEP:    120
 --------------------------

 Number of electrons:                                                        408
 Number of occupied orbitals:                                                204
 Number of molecular orbitals:                                               204

 Number of orbital functions:                                                314
 Number of independent orbital functions:                                    314

 Extrapolation method: ASPC


 SCF WAVEFUNCTION OPTIMIZATION

  ----------------------------------- OT ---------------------------------------
  Minimizer      : DIIS                : direct inversion
                                         in the iterative subspace
                                         using   7 DIIS vectors
                                         safer DIIS on
  Preconditioner : FULL_SINGLE_INVERSE : inversion of 
                                         H + eS - 2*(Sc)(c^T*H*c+const)(Sc)^T
  Precond_solver : DEFAULT
  stepsize       :    0.08000000                  energy_gap     :    0.08000000
  eps_taylor     :   0.10000E-15                  max_taylor     :             4
  ----------------------------------- OT ---------------------------------------

  Step     Update method      Time    Convergence         Total energy    Change
  ------------------------------------------------------------------------------
     1 OT DIIS     0.80E-01    4.8     0.00008059      -902.8239520631 -9.03E+02
     2 OT DIIS     0.80E-01    6.0     0.00004507      -902.8239751087 -2.30E-05
     3 OT DIIS     0.80E-01    6.0     0.00002995      -902.8239827762 -7.67E-06
     4 OT DIIS     0.80E-01    6.0     0.00001145      -902.8239864283 -3.65E-06
     5 OT DIIS     0.80E-01    6.0     0.00000548      -902.8239869895 -5.61E-07

  *** SCF run converged in     5 steps ***


  Electronic density on regular grids:       -407.9999939498        0.0000060502
  Core density on regular grids:              407.9999999747       -0.0000000253
  Total charge density on r-space grids:        0.0000060249
  Total charge density g-space grids:           0.0000060249

  Overlap energy of the core charge distribution:               0.00000006274410
  Self energy of the core charge distribution:              -2342.23014539452743
  Core Hamiltonian energy:                                    682.85369385088654
  Hartree energy:                                             971.45158742855324
  Exchange-correlation energy:                               -214.89912293710935

  Total energy:                                              -902.82398698945292

 ENERGY| Total FORCE_EVAL ( QS ) energy [hartree]           -902.823987108655160

 OPT| **************************************************************************
 OPT| Step number                                                            120
 OPT| Optimization method                                                  LBFGS
 OPT| Total energy [hartree]                                     -902.8239871087
 OPT| Effective energy change [hartree]                            -0.0000047612
 OPT| Decrease in energy                                                     YES
 OPT| Used time [s]                                                       37.766
 OPT|
 OPT| Maximum step size                                             0.0467696234
 OPT| Convergence limit for maximum step size                       0.0030000000
 OPT| Maximum step size is converged                                          NO
 OPT|
 OPT| RMS step size                                                 0.0047779043
 OPT| Convergence limit for RMS step size                           0.0015000000
 OPT| RMS step size is converged                                              NO
 OPT|
 OPT| Maximum gradient                                              0.0053424911
 OPT| Convergence limit for maximum gradient                        0.0010000000
 OPT| Maximum gradient is converged                                           NO
 OPT|
 OPT| RMS gradient                                                  0.0005770607
 OPT| Convergence limit for RMS gradient                            0.0003000000
 OPT| RMS gradient is converged                                               NO
 OPT| **************************************************************************
 OPT| Estimated peak process memory after this step [MiB]                   1798

 --------------------------
 OPTIMIZATION STEP:    121
 --------------------------

 Number of electrons:                                                        408
 Number of occupied orbitals:                                                204
 Number of molecular orbitals:                                               204

 Number of orbital functions:                                                314
 Number of independent orbital functions:                                    314

 Extrapolation method: ASPC


 SCF WAVEFUNCTION OPTIMIZATION

  ----------------------------------- OT ---------------------------------------
  Minimizer      : DIIS                : direct inversion
                                         in the iterative subspace
                                         using   7 DIIS vectors
                                         safer DIIS on
  Preconditioner : FULL_SINGLE_INVERSE : inversion of 
                                         H + eS - 2*(Sc)(c^T*H*c+const)(Sc)^T
  Precond_solver : DEFAULT
  stepsize       :    0.08000000                  energy_gap     :    0.08000000
  eps_taylor     :   0.10000E-15                  max_taylor     :             4
  ----------------------------------- OT ---------------------------------------

  Step     Update method      Time    Convergence         Total energy    Change
  ------------------------------------------------------------------------------
     1 OT DIIS     0.80E-01    4.8     0.00024251      -902.8236585657 -9.03E+02
     2 OT DIIS     0.80E-01    6.0     0.00014371      -902.8238926886 -2.34E-04
     3 OT DIIS     0.80E-01    6.0     0.00006102      -902.8240156694 -1.23E-04
     4 OT DIIS     0.80E-01    6.0     0.00002541      -902.8240317089 -1.60E-05
     5 OT DIIS     0.80E-01    6.0     0.00001210      -902.8240340270 -2.32E-06
     6 OT DIIS     0.80E-01    6.0     0.00000545      -902.8240346062 -5.79E-07

  *** SCF run converged in     6 steps ***


  Electronic density on regular grids:       -407.9999939375        0.0000060625
  Core density on regular grids:              407.9999999747       -0.0000000253
  Total charge density on r-space grids:        0.0000060372
  Total charge density g-space grids:           0.0000060372

  Overlap energy of the core charge distribution:               0.00000006201082
  Self energy of the core charge distribution:              -2342.23014539452743
  Core Hamiltonian energy:                                    682.85326169705672
  Hartree energy:                                             971.45146582523194
  Exchange-correlation energy:                               -214.89861679595921

  Total energy:                                              -902.82403460618730

 ENERGY| Total FORCE_EVAL ( QS ) energy [hartree]           -902.824034734019278

 OPT| **************************************************************************
 OPT| Step number                                                            121
 OPT| Optimization method                                                  LBFGS
 OPT| Total energy [hartree]                                     -902.8240347340
 OPT| Effective energy change [hartree]                            -0.0000476254
 OPT| Decrease in energy                                                     YES
 OPT| Used time [s]                                                       43.803
 OPT|
 OPT| Maximum step size                                             0.0119439524
 OPT| Convergence limit for maximum step size                       0.0030000000
 OPT| Maximum step size is converged                                          NO
 OPT|
 OPT| RMS step size                                                 0.0013843358
 OPT| Convergence limit for RMS step size                           0.0015000000
 OPT| RMS step size is converged                                             YES
 OPT|
 OPT| Maximum gradient                                              0.0007826350
 OPT| Convergence limit for maximum gradient                        0.0010000000
 OPT| Maximum gradient is converged                                          YES
 OPT|
 OPT| RMS gradient                                                  0.0001733013
 OPT| Convergence limit for RMS gradient                            0.0003000000
 OPT| RMS gradient is converged                                              YES
 OPT| **************************************************************************
 OPT| Estimated peak process memory after this step [MiB]                   1798

 --------------------------
 OPTIMIZATION STEP:    122
 --------------------------

 Number of electrons:                                                        408
 Number of occupied orbitals:                                                204
 Number of molecular orbitals:                                               204

 Number of orbital functions:                                                314
 Number of independent orbital functions:                                    314

 Extrapolation method: ASPC


 SCF WAVEFUNCTION OPTIMIZATION

  ----------------------------------- OT ---------------------------------------
  Minimizer      : DIIS                : direct inversion
                                         in the iterative subspace
                                         using   7 DIIS vectors
                                         safer DIIS on
  Preconditioner : FULL_SINGLE_INVERSE : inversion of 
                                         H + eS - 2*(Sc)(c^T*H*c+const)(Sc)^T
  Precond_solver : DEFAULT
  stepsize       :    0.08000000                  energy_gap     :    0.08000000
  eps_taylor     :   0.10000E-15                  max_taylor     :             4
  ----------------------------------- OT ---------------------------------------

  Step     Update method      Time    Convergence         Total energy    Change
  ------------------------------------------------------------------------------
     1 OT DIIS     0.80E-01    4.8     0.00024688      -902.8236539832 -9.03E+02
     2 OT DIIS     0.80E-01    6.0     0.00014704      -902.8238980386 -2.44E-04
     3 OT DIIS     0.80E-01    6.0     0.00005758      -902.8240298430 -1.32E-04
     4 OT DIIS     0.80E-01    6.0     0.00002312      -902.8240439882 -1.41E-05
     5 OT DIIS     0.80E-01    6.0     0.00001100      -902.8240460284 -2.04E-06
     6 OT DIIS     0.80E-01    6.0     0.00000507      -902.8240465343 -5.06E-07

  *** SCF run converged in     6 steps ***


  Electronic density on regular grids:       -407.9999939310        0.0000060690
  Core density on regular grids:              407.9999999747       -0.0000000253
  Total charge density on r-space grids:        0.0000060437
  Total charge density g-space grids:           0.0000060437

  Overlap energy of the core charge distribution:               0.00000006193266
  Self energy of the core charge distribution:              -2342.23014539452743
  Core Hamiltonian energy:                                    682.85396566010331
  Hartree energy:                                             971.45085485242316
  Exchange-correlation energy:                               -214.89872171424366

  Total energy:                                              -902.82404653431217

 ENERGY| Total FORCE_EVAL ( QS ) energy [hartree]           -902.824046646450483

 OPT| **************************************************************************
 OPT| Step number                                                            122
 OPT| Optimization method                                                  LBFGS
 OPT| Total energy [hartree]                                     -902.8240466465
 OPT| Effective energy change [hartree]                            -0.0000119124
 OPT| Decrease in energy                                                     YES
 OPT| Used time [s]                                                       43.796
 OPT|
 OPT| Maximum step size                                             0.0046284563
 OPT| Convergence limit for maximum step size                       0.0030000000
 OPT| Maximum step size is converged                                          NO
 OPT|
 OPT| RMS step size                                                 0.0006217014
 OPT| Convergence limit for RMS step size                           0.0015000000
 OPT| RMS step size is converged                                             YES
 OPT|
 OPT| Maximum gradient                                              0.0007470289
 OPT| Convergence limit for maximum gradient                        0.0010000000
 OPT| Maximum gradient is converged                                          YES
 OPT|
 OPT| RMS gradient                                                  0.0001305458
 OPT| Convergence limit for RMS gradient                            0.0003000000
 OPT| RMS gradient is converged                                              YES
 OPT| **************************************************************************
 OPT| Estimated peak process memory after this step [MiB]                   1798

 --------------------------
 OPTIMIZATION STEP:    123
 --------------------------

 Number of electrons:                                                        408
 Number of occupied orbitals:                                                204
 Number of molecular orbitals:                                               204

 Number of orbital functions:                                                314
 Number of independent orbital functions:                                    314

 Extrapolation method: ASPC


 SCF WAVEFUNCTION OPTIMIZATION

  ----------------------------------- OT ---------------------------------------
  Minimizer      : DIIS                : direct inversion
                                         in the iterative subspace
                                         using   7 DIIS vectors
                                         safer DIIS on
  Preconditioner : FULL_SINGLE_INVERSE : inversion of 
                                         H + eS - 2*(Sc)(c^T*H*c+const)(Sc)^T
  Precond_solver : DEFAULT
  stepsize       :    0.08000000                  energy_gap     :    0.08000000
  eps_taylor     :   0.10000E-15                  max_taylor     :             4
  ----------------------------------- OT ---------------------------------------

  Step     Update method      Time    Convergence         Total energy    Change
  ------------------------------------------------------------------------------
     1 OT DIIS     0.80E-01    4.8     0.00010062      -902.8239986039 -9.03E+02
     2 OT DIIS     0.80E-01    6.0     0.00005937      -902.8240387591 -4.02E-05
     3 OT DIIS     0.80E-01    6.0     0.00002691      -902.8240590376 -2.03E-05
     4 OT DIIS     0.80E-01    6.0     0.00000921      -902.8240618370 -2.80E-06

  *** SCF run converged in     4 steps ***


  Electronic density on regular grids:       -407.9999939217        0.0000060783
  Core density on regular grids:              407.9999999747       -0.0000000253
  Total charge density on r-space grids:        0.0000060530
  Total charge density g-space grids:           0.0000060530

  Overlap energy of the core charge distribution:               0.00000006181147
  Self energy of the core charge distribution:              -2342.23014539452743
  Core Hamiltonian energy:                                    682.85476859079279
  Hartree energy:                                             971.45006225092573
  Exchange-correlation energy:                               -214.89874734601577

  Total energy:                                              -902.82406183701301

 ENERGY| Total FORCE_EVAL ( QS ) energy [hartree]           -902.824062167546799

 OPT| **************************************************************************
 OPT| Step number                                                            123
 OPT| Optimization method                                                  LBFGS
 OPT| Total energy [hartree]                                     -902.8240621675
 OPT| Effective energy change [hartree]                            -0.0000155211
 OPT| Decrease in energy                                                     YES
 OPT| Used time [s]                                                       31.762
 OPT|
 OPT| Maximum step size                                             0.0065730213
 OPT| Convergence limit for maximum step size                       0.0030000000
 OPT| Maximum step size is converged                                          NO
 OPT|
 OPT| RMS step size                                                 0.0008775714
 OPT| Convergence limit for RMS step size                           0.0015000000
 OPT| RMS step size is converged                                             YES
 OPT|
 OPT| Maximum gradient                                              0.0009810647
 OPT| Convergence limit for maximum gradient                        0.0010000000
 OPT| Maximum gradient is converged                                          YES
 OPT|
 OPT| RMS gradient                                                  0.0001354583
 OPT| Convergence limit for RMS gradient                            0.0003000000
 OPT| RMS gradient is converged                                              YES
 OPT| **************************************************************************
 OPT| Estimated peak process memory after this step [MiB]                   1798

 --------------------------
 OPTIMIZATION STEP:    124
 --------------------------

 Number of electrons:                                                        408
 Number of occupied orbitals:                                                204
 Number of molecular orbitals:                                               204

 Number of orbital functions:                                                314
 Number of independent orbital functions:                                    314

 Extrapolation method: ASPC


 SCF WAVEFUNCTION OPTIMIZATION

  ----------------------------------- OT ---------------------------------------
  Minimizer      : DIIS                : direct inversion
                                         in the iterative subspace
                                         using   7 DIIS vectors
                                         safer DIIS on
  Preconditioner : FULL_SINGLE_INVERSE : inversion of 
                                         H + eS - 2*(Sc)(c^T*H*c+const)(Sc)^T
  Precond_solver : DEFAULT
  stepsize       :    0.08000000                  energy_gap     :    0.08000000
  eps_taylor     :   0.10000E-15                  max_taylor     :             4
  ----------------------------------- OT ---------------------------------------

  Step     Update method      Time    Convergence         Total energy    Change
  ------------------------------------------------------------------------------
     1 OT DIIS     0.80E-01    4.8     0.00007973      -902.8240337026 -9.03E+02
     2 OT DIIS     0.80E-01    6.0     0.00004760      -902.8240591272 -2.54E-05
     3 OT DIIS     0.80E-01    6.0     0.00002244      -902.8240723261 -1.32E-05
     4 OT DIIS     0.80E-01    6.0     0.00000744      -902.8240739421 -1.62E-06

  *** SCF run converged in     4 steps ***


  Electronic density on regular grids:       -407.9999939127        0.0000060873
  Core density on regular grids:              407.9999999748       -0.0000000252
  Total charge density on r-space grids:        0.0000060620
  Total charge density g-space grids:           0.0000060620

  Overlap energy of the core charge distribution:               0.00000006218560
  Self energy of the core charge distribution:              -2342.23014539452743
  Core Hamiltonian energy:                                    682.85477525442150
  Hartree energy:                                             971.45011024541066
  Exchange-correlation energy:                               -214.89881410960652

  Total energy:                                              -902.82407394211612

 ENERGY| Total FORCE_EVAL ( QS ) energy [hartree]           -902.824074133429349

 OPT| **************************************************************************
 OPT| Step number                                                            124
 OPT| Optimization method                                                  LBFGS
 OPT| Total energy [hartree]                                     -902.8240741334
 OPT| Effective energy change [hartree]                            -0.0000119659
 OPT| Decrease in energy                                                     YES
 OPT| Used time [s]                                                       31.770
 OPT|
 OPT| Maximum step size                                             0.0282966984
 OPT| Convergence limit for maximum step size                       0.0030000000
 OPT| Maximum step size is converged                                          NO
 OPT|
 OPT| RMS step size                                                 0.0026531440
 OPT| Convergence limit for RMS step size                           0.0015000000
 OPT| RMS step size is converged                                              NO
 OPT|
 OPT| Maximum gradient                                              0.0018328945
 OPT| Convergence limit for maximum gradient                        0.0010000000
 OPT| Maximum gradient is converged                                           NO
 OPT|
 OPT| RMS gradient                                                  0.0002496406
 OPT| Convergence limit for RMS gradient                            0.0003000000
 OPT| RMS gradient is converged                                              YES
 OPT| **************************************************************************
 OPT| Estimated peak process memory after this step [MiB]                   1798

 --------------------------
 OPTIMIZATION STEP:    125
 --------------------------

 Number of electrons:                                                        408
 Number of occupied orbitals:                                                204
 Number of molecular orbitals:                                               204

 Number of orbital functions:                                                314
 Number of independent orbital functions:                                    314

 Extrapolation method: ASPC


 SCF WAVEFUNCTION OPTIMIZATION

  ----------------------------------- OT ---------------------------------------
  Minimizer      : DIIS                : direct inversion
                                         in the iterative subspace
                                         using   7 DIIS vectors
                                         safer DIIS on
  Preconditioner : FULL_SINGLE_INVERSE : inversion of 
                                         H + eS - 2*(Sc)(c^T*H*c+const)(Sc)^T
  Precond_solver : DEFAULT
  stepsize       :    0.08000000                  energy_gap     :    0.08000000
  eps_taylor     :   0.10000E-15                  max_taylor     :             4
  ----------------------------------- OT ---------------------------------------

  Step     Update method      Time    Convergence         Total energy    Change
  ------------------------------------------------------------------------------
     1 OT DIIS     0.80E-01    4.8     0.00012326      -902.8239875377 -9.03E+02
     2 OT DIIS     0.80E-01    6.0     0.00007301      -902.8240483447 -6.08E-05
     3 OT DIIS     0.80E-01    6.0     0.00002829      -902.8240805276 -3.22E-05
     4 OT DIIS     0.80E-01    6.0     0.00001037      -902.8240836678 -3.14E-06
     5 OT DIIS     0.80E-01    6.0     0.00000486      -902.8240841673 -4.99E-07

  *** SCF run converged in     5 steps ***


  Electronic density on regular grids:       -407.9999939039        0.0000060961
  Core density on regular grids:              407.9999999748       -0.0000000252
  Total charge density on r-space grids:        0.0000060709
  Total charge density g-space grids:           0.0000060709

  Overlap energy of the core charge distribution:               0.00000006151433
  Self energy of the core charge distribution:              -2342.23014539452743
  Core Hamiltonian energy:                                    682.85350334552095
  Hartree energy:                                             971.45057748571526
  Exchange-correlation energy:                               -214.89801966550317

  Total energy:                                              -902.82408416728026

 ENERGY| Total FORCE_EVAL ( QS ) energy [hartree]           -902.824084271904894

 OPT| **************************************************************************
 OPT| Step number                                                            125
 OPT| Optimization method                                                  LBFGS
 OPT| Total energy [hartree]                                     -902.8240842719
 OPT| Effective energy change [hartree]                            -0.0000101385
 OPT| Decrease in energy                                                     YES
 OPT| Used time [s]                                                       37.794
 OPT|
 OPT| Maximum step size                                             0.0113039694
 OPT| Convergence limit for maximum step size                       0.0030000000
 OPT| Maximum step size is converged                                          NO
 OPT|
 OPT| RMS step size                                                 0.0010767117
 OPT| Convergence limit for RMS step size                           0.0015000000
 OPT| RMS step size is converged                                             YES
 OPT|
 OPT| Maximum gradient                                              0.0011095173
 OPT| Convergence limit for maximum gradient                        0.0010000000
 OPT| Maximum gradient is converged                                           NO
 OPT|
 OPT| RMS gradient                                                  0.0001664457
 OPT| Convergence limit for RMS gradient                            0.0003000000
 OPT| RMS gradient is converged                                              YES
 OPT| **************************************************************************
 OPT| Estimated peak process memory after this step [MiB]                   1798

 --------------------------
 OPTIMIZATION STEP:    126
 --------------------------

 Number of electrons:                                                        408
 Number of occupied orbitals:                                                204
 Number of molecular orbitals:                                               204

 Number of orbital functions:                                                314
 Number of independent orbital functions:                                    314

 Extrapolation method: ASPC


 SCF WAVEFUNCTION OPTIMIZATION

  ----------------------------------- OT ---------------------------------------
  Minimizer      : DIIS                : direct inversion
                                         in the iterative subspace
                                         using   7 DIIS vectors
                                         safer DIIS on
  Preconditioner : FULL_SINGLE_INVERSE : inversion of 
                                         H + eS - 2*(Sc)(c^T*H*c+const)(Sc)^T
  Precond_solver : DEFAULT
  stepsize       :    0.08000000                  energy_gap     :    0.08000000
  eps_taylor     :   0.10000E-15                  max_taylor     :             4
  ----------------------------------- OT ---------------------------------------

  Step     Update method      Time    Convergence         Total energy    Change
  ------------------------------------------------------------------------------
     1 OT DIIS     0.80E-01    4.8     0.00007573      -902.8240571832 -9.03E+02
     2 OT DIIS     0.80E-01    6.0     0.00004137      -902.8240787934 -2.16E-05
     3 OT DIIS     0.80E-01    6.0     0.00002180      -902.8240871584 -8.37E-06
     4 OT DIIS     0.80E-01    6.0     0.00000788      -902.8240890079 -1.85E-06

  *** SCF run converged in     4 steps ***


  Electronic density on regular grids:       -407.9999939044        0.0000060956
  Core density on regular grids:              407.9999999748       -0.0000000252
  Total charge density on r-space grids:        0.0000060704
  Total charge density g-space grids:           0.0000060704

  Overlap energy of the core charge distribution:               0.00000006168976
  Self energy of the core charge distribution:              -2342.23014539452743
  Core Hamiltonian energy:                                    682.85346009670513
  Hartree energy:                                             971.45074380675374
  Exchange-correlation energy:                               -214.89814757849243

  Total energy:                                              -902.82408900787141

 ENERGY| Total FORCE_EVAL ( QS ) energy [hartree]           -902.824089272085757

 OPT| **************************************************************************
 OPT| Step number                                                            126
 OPT| Optimization method                                                  LBFGS
 OPT| Total energy [hartree]                                     -902.8240892721
 OPT| Effective energy change [hartree]                            -0.0000050002
 OPT| Decrease in energy                                                     YES
 OPT| Used time [s]                                                       31.824
 OPT|
 OPT| Maximum step size                                             0.0021918259
 OPT| Convergence limit for maximum step size                       0.0030000000
 OPT| Maximum step size is converged                                         YES
 OPT|
 OPT| RMS step size                                                 0.0003043413
 OPT| Convergence limit for RMS step size                           0.0015000000
 OPT| RMS step size is converged                                             YES
 OPT|
 OPT| Maximum gradient                                              0.0005318844
 OPT| Convergence limit for maximum gradient                        0.0010000000
 OPT| Maximum gradient is converged                                          YES
 OPT|
 OPT| RMS gradient                                                  0.0001058975
 OPT| Convergence limit for RMS gradient                            0.0003000000
 OPT| RMS gradient is converged                                              YES
 OPT| **************************************************************************
 OPT| Estimated peak process memory after this step [MiB]                   1798

 *******************************************************************************
 ***                    GEOMETRY OPTIMIZATION COMPLETED                      ***
 *******************************************************************************

                    Reevaluating energy at the minimum

 Number of electrons:                                                        408
 Number of occupied orbitals:                                                204
 Number of molecular orbitals:                                               204

 Number of orbital functions:                                                314
 Number of independent orbital functions:                                    314

 Extrapolation method: ASPC


 SCF WAVEFUNCTION OPTIMIZATION

  ----------------------------------- OT ---------------------------------------
  Minimizer      : DIIS                : direct inversion
                                         in the iterative subspace
                                         using   7 DIIS vectors
                                         safer DIIS on
  Preconditioner : FULL_SINGLE_INVERSE : inversion of 
                                         H + eS - 2*(Sc)(c^T*H*c+const)(Sc)^T
  Precond_solver : DEFAULT
  stepsize       :    0.08000000                  energy_gap     :    0.08000000
  eps_taylor     :   0.10000E-15                  max_taylor     :             4
  ----------------------------------- OT ---------------------------------------

  Step     Update method      Time    Convergence         Total energy    Change
  ------------------------------------------------------------------------------
     1 OT DIIS     0.80E-01    4.8     0.00004273      -902.8240805418 -9.03E+02
     2 OT DIIS     0.80E-01    6.0     0.00002088      -902.8240869161 -6.37E-06
     3 OT DIIS     0.80E-01    6.0     0.00001153      -902.8240887119 -1.80E-06
     4 OT DIIS     0.80E-01    6.0     0.00000488      -902.8240892273 -5.15E-07

  *** SCF run converged in     4 steps ***


  Electronic density on regular grids:       -407.9999939044        0.0000060956
  Core density on regular grids:              407.9999999748       -0.0000000252
  Total charge density on r-space grids:        0.0000060704
  Total charge density g-space grids:           0.0000060704

  Overlap energy of the core charge distribution:               0.00000006168976
  Self energy of the core charge distribution:              -2342.23014539452743
  Core Hamiltonian energy:                                    682.85413042628920
  Hartree energy:                                             971.45024375215735
  Exchange-correlation energy:                               -214.89831807291074

  Total energy:                                              -902.82408922730201

 ENERGY| Total FORCE_EVAL ( QS ) energy [hartree]           -902.824089227302011

 -------------------------------------------------------------------------------
 -                                                                             -
 -                                DBCSR STATISTICS                             -
 -                                                                             -
 -------------------------------------------------------------------------------
 COUNTER                                    TOTAL       BLAS       SMM       ACC
 flops     1 x    12 x    12              1378944       0.0%    100.0%      0.0%     
 flops     1 x    32 x    12             11031552       0.0%    100.0%      0.0%     
 flops     1 x    12 x    32             11031552       0.0%    100.0%      0.0%     
 flops    12 x    12 x   314             12027456       0.0%    100.0%      0.0%     
 flops     1 x    12 x     1             13154832       0.0%    100.0%      0.0%     
 flops     4 x    12 x    12             22675968       0.0%    100.0%      0.0%     
 flops     1 x     1 x   204             57368472       0.0%    100.0%      0.0%     
 flops    12 x    32 x   314             96219648       0.0%    100.0%      0.0%     
 flops    32 x    12 x   314             96219648       0.0%    100.0%      0.0%     
 flops     4 x    32 x    12            181407744       0.0%    100.0%      0.0%     
 flops     4 x    12 x    32            181407744       0.0%    100.0%      0.0%     
 flops     1 x    32 x    32            205922304       0.0%    100.0%      0.0%     
 flops     1 x    32 x     1            210477312       0.0%    100.0%      0.0%     
 flops     1 x    12 x     4            224239584       0.0%    100.0%      0.0%     
 flops     4 x    12 x     1            224239584       0.0%    100.0%      0.0%     
 flops     4 x     1 x   204            880699008       0.0%    100.0%      0.0%     
 flops     1 x     4 x   204            900927648       0.0%    100.0%      0.0%     
 flops    32 x    32 x   314           1796100096       0.0%    100.0%      0.0%     
 flops     4 x    32 x    32           3386277888       0.0%    100.0%      0.0%     
 flops     1 x    32 x     4           3587833344       0.0%    100.0%      0.0%     
 flops     4 x    32 x     1           3587833344       0.0%    100.0%      0.0%     
 flops     4 x    12 x     4           4389989376       0.0%    100.0%      0.0%     
 flops     4 x     4 x   204          17303475840       0.0%    100.0%      0.0%     
 flops   314 x   204 x   314          42117844896       0.0%    100.0%      0.0%     
 flops     4 x    32 x     4          70239830016       0.0%    100.0%      0.0%     
 flops   204 x   204 x   314          92073069504       0.0%    100.0%      0.0%     
 flops   204 x   204 x   204          98717812992       0.0%    100.0%      0.0%     
 flops   314 x   204 x   204         112484385792       0.0%    100.0%      0.0%     
 flops inhomo. stacks                           0       0.0%      0.0%      0.0%
 flops total                       453.014882E+09       0.0%    100.0%      0.0%
 flops max/rank                    453.014882E+09       0.0%    100.0%      0.0%
 matmuls inhomo. stacks                         0       0.0%      0.0%      0.0%
 matmuls total                          121150855       0.0%    100.0%      0.0%
 number of processed stacks                162578       0.0%    100.0%      0.0%
 average stack size                                     0.0     745.2       0.0
 marketing flops                   533.299626E+09
 -------------------------------------------------------------------------------
 # multiplications                          19544
 max memory usage/rank               1.884475E+09
 # max total images/rank                        1
 # max 3D layers                                1
 # MPI messages exchanged                       0
 -------------------------------------------------------------------------------
 -                                                                             -
 -                      DBCSR MESSAGE PASSING PERFORMANCE                      -
 -                                                                             -
 -------------------------------------------------------------------------------
 ROUTINE             CALLS      AVE VOLUME [Bytes]
 MP_Bcast               29                     12.
 MP_Allreduce       100900                      8.
 MP_Alltoall         82829                 155951.
 MP_ISend            77644                  19709.
 MP_IRecv            77644                  19709.
 -------------------------------------------------------------------------------

 -------------------------------------------------------------------------------
 -                                                                             -
 -                                DBM STATISTICS                               -
 -                                                                             -
 -------------------------------------------------------------------------------
    M  x    N  x    K                                          COUNT     PERCENT
 -------------------------------------------------------------------------------

 -------------------------------------------------------------------------------
 -                                                                             -
 -                                GRID STATISTICS                              -
 -                                                                             -
 -------------------------------------------------------------------------------
 LP    KERNEL             BACKEND                              COUNT     PERCENT
 2     collocate ortho    CPU                               33648681      33.85%
 2     integrate ortho    CPU                               31087551      31.28%
 1     collocate ortho    CPU                               13508195      13.59%
 1     integrate ortho    CPU                               12115037      12.19%
 3     integrate ortho    CPU                                4230971       4.26%
 0     collocate ortho    CPU                                2550994       2.57%
 0     integrate ortho    CPU                                2226940       2.24%
 0     collocate general  CPU                                  12236       0.01%
 1     integrate general  CPU                                  12144       0.01%
 -------------------------------------------------------------------------------

 MEMORY| Estimated peak process memory [MiB]                                1798

 -------------------------------------------------------------------------------
 -                                                                             -
 -                         MESSAGE PASSING PERFORMANCE                         -
 -                                                                             -
 -------------------------------------------------------------------------------

 ROUTINE             CALLS      AVE VOLUME [Bytes]
 MP_Group                4
 MP_Bcast            22377                   1480.
 MP_Allreduce        68187                   1049.
 MP_Sync                72
 -------------------------------------------------------------------------------


 -------------------------------------------------------------------------------
 -                                                                             -
 -                           R E F E R E N C E S                               -
 -                                                                             -
 -------------------------------------------------------------------------------
 
 CP2K version 2025.1, the CP2K developers group (2025).
 CP2K is freely available from https://www.cp2k.org/ .
 
 T. D. Kuehne, M. Iannuzzi, M. Del Ben, V. V. Rybkin, P. Seewald, F. Stein, T. 
 Laino, R. Z. Khaliullin, O. Schuett, F. Schiffmann, D. Golze, J. Wilhelm, S. 
 Chulkov, M. H. Bani-Hashemian, V. Weber, U. Borstnik, M. Taillefumier, A. S. 
 Jakobovits, A. Lazzaro, H. Pabst, T. Mueller, R. Schade, M. Guidon, S. 
 Andermatt, N. Holmberg, G. K. Schenter, A. Hehn, A. Bussy, F. Belleflamme, G. 
 Tabacchi, A. Gloess, M. Lass, I. Bethune, C. J. Mundy, C. Plessl, M. Watkins, 
 J. VandeVondele, M. Krack, J. Hutter.
 J. Chem. Phys. 152, 194103 (2020).
 CP2K: An electronic structure and molecular dynamics software package - 
 Quickstep: Efficient and accurate electronic structure calculations.
 https://doi.org/10.1063/5.0007045

 O. Schuett, P. Messmer, J. Hutter, J. VandeVondele.
 Electronic Structure Calculations on Graphics Processing Units, 173-190 (2016).
 GPU-Accelerated Sparse Matrix-Matrix Multiplication for Linear Scaling Density 
 Functional Theory.
 https://doi.org/10.1002/9781118670712.ch8

 A. Heinecke, G. Henry, M. Hutchinson, H. Pabst.
 Proceedings of Intl. Supercomputing Conference, 981-991 (2016).
 LIBXSMM: Accelerating Small Matrix Multiplications by Runtime Code Generation.
 https://doi.org/10.1109/SC.2016.83

 J. Hutter, M. Iannuzzi, F. Schiffmann, J. VandeVondele.
 WIREs Comput Mol Sci. 4, 15-25 (2014).
 CP2K: atomistic simulations of condensed matter systems.
 https://doi.org/10.1002/wcms.1159

 U. Borstnik, J. VandeVondele, V. Weber, J. Hutter.
 Parallel Comput. 40, 47-58 (2014).
 Sparse matrix multiplication: The distributed block-compressed sparse row 
 library.
 https://doi.org/10.1016/j.parco.2014.03.012

 A. Marek, V. Blum, R. Johanni, V. Havu, B. Lang, T. Auckenthaler, A. Heinecke, 
 H. Bungartz, H. Lederer.
 J. Phys. Condens. Matter 26, 213201 (2014).
 The ELPA library: scalable parallel eigenvalue solutions for electronic 
 structure theory and computational science.
 https://doi.org/10.1088/0953-8984/26/21/213201

 J. VandeVondele, J. Hutter.
 J. Chem. Phys. 127, 114105 (2007).
 Gaussian basis sets for accurate calculations on molecular systems in gas and 
 condensed phases.
 https://doi.org/10.1063/1.2770708

 T. D. Kühne, M. Krack, F. R. Mohamed, M. Parrinello.
 Phys. Rev. Lett. 98, 066401 (2007).
 Efficient and accurate Car-Parrinello-like approach to Born-Oppenheimer 
 molecular dynamics.
 https://doi.org/10.1103/PhysRevLett.98.066401

 J. VandeVondele, M. Krack, F. Mohamed, M. Parrinello, T. Chassaing, J. Hutter.
 Comput. Phys. Commun. 167, 103-128 (2005).
 QUICKSTEP: Fast and accurate density functional calculations using a mixed 
 Gaussian and plane waves approach.
 https://doi.org/10.1016/j.cpc.2004.12.014

 M. Krack.
 Theor. Chem. Acc. 114, 145-152 (2005).
 Pseudopotentials for H to Kr optimized for gradient-corrected 
 exchange-correlation functionals.
 https://doi.org/10.1007/s00214-005-0655-y

 M. Frigo, S. G. Johnson.
 Proc. IEEE 93, 216-231 (2005).
 The design and implementation of FFTW3.
 https://doi.org/10.1109/JPROC.2004.840301

 J. Kolafa.
 J. Comput. Chem. 25, 335-342 (2004).
 Time-reversible always stable predictor-corrector method for molecular dynamics 
 of polarizable molecules.
 https://doi.org/10.1002/jcc.10385

 J. VandeVondele, J. Hutter.
 J. Chem. Phys. 118, 4365-4369 (2003).
 An efficient orbital transformation method for electronic structure 
 calculations.
 https://doi.org/10.1063/1.1543154

 C. Hartwigsen, S. Goedecker, J. Hutter.
 Phys. Rev. B 58, 3641-3662 (1998).
 Relativistic separable dual-space Gaussian pseudopotentials from H to Rn.
 https://doi.org/10.1103/PhysRevB.58.3641

 G. Lippert, J. Hutter, M. Parrinello.
 Mol. Phys. 92, 477-487 (1997).
 A hybrid Gaussian and plane wave density functional scheme.
 https://doi.org/10.1080/002689797170220

 S. Goedecker, M. Teter, J. Hutter.
 Phys. Rev. B 54, 1703-1710 (1996).
 Separable dual-space Gaussian pseudopotentials.
 https://doi.org/10.1103/PhysRevB.54.1703

 J. P. Perdew, K. Burke, M. Ernzerhof.
 Phys. Rev. Lett. 77, 3865-3868 (1996).
 Generalized gradient approximation made simple.
 https://doi.org/10.1103/PhysRevLett.77.3865

 R. H. Byrd, P. H. Lu, J. Nocedal, C. Y. Zhu.
 SIAM J. Sci. Comput. 16, 1190-1208 (1995).
 A Limited Memory Algorithm for Bound Constrained Optimization.
 https://doi.org/10.1137/0916069


 -------------------------------------------------------------------------------
 -                                                                             -
 -                                T I M I N G                                  -
 -                                                                             -
 -------------------------------------------------------------------------------
 SUBROUTINE                       CALLS  ASD         SELF TIME        TOTAL TIME
                                MAXIMUM       AVERAGE  MAXIMUM  AVERAGE  MAXIMUM
 CP2K                                 1  1.0    0.331    0.331 6531.008 6531.008
 cp_geo_opt                           1  2.0    0.000    0.000 6529.506 6529.506
 geoopt_lbfgs                         1  3.0    0.002    0.002 6529.506 6529.506
 cp_eval_at                         133  5.0    0.024    0.024 6528.912 6528.912
 cp_opt_gopt_step                   126  4.0    0.025    0.025 6503.357 6503.357
 qs_forces                          132  6.0    0.015    0.015 6502.755 6502.755
 qs_energies                        133  7.0    0.009    0.009 5789.793 5789.793
 scf_env_do_scf                     133  8.0    0.009    0.009 5517.961 5517.961
 rebuild_ks_matrix                 1046 10.6    0.004    0.004 4947.497 4947.497
 qs_ks_build_kohn_sham_matrix      1046 11.6    0.108    0.108 4947.493 4947.493
 scf_env_do_scf_inner_loop          914  9.0    0.098    0.098 4884.009 4884.009
 qs_ks_update_qs_env               1047 10.0    0.007    0.007 4282.156 4282.156
 fft_wrap_pw1pw2                  17920 15.0    0.184    0.184 3361.373 3361.373
 fft_wrap_pw1pw2_150              11641 16.4   35.821   35.821 3281.782 3281.782
 qs_vxc_create                     1046 12.6    0.016    0.016 3193.548 3193.548
 xc_vxc_pw_create                  1046 13.6  211.143  211.143 3193.532 3193.532
 fft3d_s                          17921 17.0 2347.026 2347.026 2347.089 2347.089
 xc_pw_derive                      6276 15.6    0.043    0.043 1954.134 1954.134
 xc_rho_set_and_dset_create        1046 14.6  148.806  148.806 1471.322 1471.322
 xc_pw_divergence                  1046 14.6    0.019    0.019 1414.347 1414.347
 qs_rho_update_rho_low             1047 10.1    0.006    0.006 1338.755 1338.755
 calculate_rho_elec                1047 11.1   24.489   24.489 1338.749 1338.749
 sum_up_and_integrate              1046 12.6    0.015    0.015 1236.647 1236.647
 integrate_v_rspace                1046 13.6    0.583    0.583 1101.722 1101.722
 grid_integrate_task_list          1046 14.6  735.063  735.063  735.063  735.063
 density_rs2pw                     1047 12.1    0.042    0.042  671.704  671.704
 qs_ks_update_qs_env_forces         132  7.0    0.001    0.001  665.728  665.728
 grid_collocate_task_list          1047 12.1  642.557  642.557  642.557  642.557
 init_scf_loop                      133  9.0    0.003    0.003  633.661  633.661
 potential_pw2rs                   1046 14.6    0.719    0.719  366.075  366.075
 xc_functional_eval                1046 15.6    0.008    0.008  340.643  340.643
 pbe_lda_eval                      1046 16.6  340.634  340.634  340.634  340.634
 pw_scatter_s                      9415 17.3  315.747  315.747  315.747  315.747
 pw_gather_s                       8505 16.7  302.311  302.311  302.311  302.311
 pw_axpy                          10464 14.1  295.863  295.863  295.863  295.863
 pw_derive                         9414 15.9  210.385  210.385  210.385  210.385
 pw_copy_from_array                9415 17.3  186.980  186.980  186.980  186.980
 init_scf_run                       133  8.0    0.010    0.010  179.186  179.186
 scf_env_initial_rho_setup          133  9.0    0.007    0.007  179.176  179.176
 wfi_extrapolate                    133 10.0    0.012    0.012  177.569  177.569
 pw_poisson_solve                  1046 12.6    0.014    0.014  173.311  173.311
 pw_copy_to_array                  8505 16.7  169.422  169.422  169.422  169.422
 pw_copy                          15690 15.1  131.143  131.143  131.143  131.143
 -------------------------------------------------------------------------------

 The number of warnings for this run is : 0
 
 -------------------------------------------------------------------------------
  **** **** ******  **  PROGRAM ENDED AT                 2026-10-08 04:53:40.553
 ***** ** ***  *** **   PROGRAM RAN ON                                    r6i5n2
 **    ****   ******    PROGRAM RAN BY                                   a266017
 ***** **    ** ** **   PROGRAM PROCESS ID                                976416
  **** **  *******  **  PROGRAM STOPPED IN /home/g7/a266017/VASP/cp2k/runs/rib_y
                                           _o00_si
