 DBCSR| CPU Multiplication driver                                           XSMM (U)
 DBCSR| Multrec recursion limit                                              512 (U)
 DBCSR| Multiplication stack size                                           1000 (D)
 DBCSR| Maximum elements for images                                    UNLIMITED (U)
 DBCSR| Multiplicative factor virtual images                                   1 (U)
 DBCSR| Use multiplication densification                                       T (D)
 DBCSR| Multiplication size stacks                                             3 (U)
 DBCSR| Use memory pool for CPU allocation                                     F (U)
 DBCSR| Number of 3D layers                                               SINGLE (U)
 DBCSR| Use MPI memory allocation                                              F (U)
 DBCSR| Use RMA algorithm                                                      F (U)
 DBCSR| Use Communication thread                                               T (U)
 DBCSR| Communication thread load                                             87 (D)
 DBCSR| MPI: My process id                                                     0
 DBCSR| MPI: Number of processes                                               1
 DBCSR| OMP: Current number of threads                                         1
 DBCSR| OMP: Max number of threads                                             1
 DBCSR| Split modifier for TAS multiplication algorithm                  1.0E+00 (U)


  **** **** ******  **  PROGRAM STARTED AT               2026-10-08 04:53:45.801
 ***** ** ***  *** **   PROGRAM STARTED ON                                r6i5n2
 **    ****   ******    PROGRAM STARTED BY                               a266017
 ***** **    ** ** **   PROGRAM PROCESS ID                                976745
  **** **  *******  **  PROGRAM STARTED IN /home/g7/a266017/VASP/cp2k/runs/rib_y
                                           _o00_si

 CP2K| version string:                                       CP2K version 2025.1
 CP2K| source code revision number:                                  git:9635df4
 CP2K| cp2kflags: omp libint fftw3 libxc libgrpp elpa parallel scalapack mpi_f08
 CP2K|             cosma xsmm plumed2 spglib mkl sirius libvori libbqb libvdwxc
 CP2K|             hdf5
 CP2K| is freely available from                            https://www.cp2k.org/
 CP2K| Program compiled at                          Fri Mar 13 14:45:02 JST 2026
 CP2K| Program compiled on                            s86fs1.tokai-sc.jaea.go.jp
 CP2K| Program compiled for                                                local
 CP2K| Data directory path                /home/center/app/CP2K/cp2k-2025.1/data
 CP2K| Input file name                                                    sp.inp
 
 GLOBAL| Force Environment number                                              1
 GLOBAL| Basis set file name                                        BASIS_MOLOPT
 GLOBAL| Potential file name                                      GTH_POTENTIALS
 GLOBAL| MM Potential file name                                     MM_POTENTIAL
 GLOBAL| Coordinate file name                                        relaxed.xyz
 GLOBAL| Method name                                                        CP2K
 GLOBAL| Project name                                                         sp
 GLOBAL| Run type                                                         ENERGY
 GLOBAL| FFT library                                                       FFTW3
 GLOBAL| Diagonalization library                                            ELPA
 GLOBAL| DGEMM library                                                      BLAS
 GLOBAL| Minimum number of eigenvectors for ELPA usage                        16
 GLOBAL| Orthonormality check for eigenvectors                          DISABLED
 GLOBAL| Matrix multiplication library                                     COSMA
 GLOBAL| All-to-all communication in single precision                          F
 GLOBAL| FFTs using library dependent lengths                                  F
 GLOBAL| Grid backend                                                       AUTO
 GLOBAL| Global print level                                                  LOW
 GLOBAL| MPI I/O enabled                                                       T
 GLOBAL| Total number of message passing processes                             1
 GLOBAL| Number of threads for this process                                    1
 GLOBAL| This output is from process                                           0
 GLOBAL| OpenMP stack size per thread (OMP_STACKSIZE)                    default
 GLOBAL| CPU model name                Intel(R) Xeon(R) Gold 6242R CPU @ 3.10GHz
 GLOBAL| CPUID                                                              1003

 MEMORY| system memory details [Kb]
 MEMORY|                        rank 0           min           max       average
 MEMORY| MemTotal            196248260     196248260     196248260     196248260
 MEMORY| MemFree             182755036     182755036     182755036     182755036
 MEMORY| Buffers                     0             0             0             0
 MEMORY| Cached                8988700       8988700       8988700       8988700
 MEMORY| Slab                  1242160       1242160       1242160       1242160
 MEMORY| SReclaimable           182912        182912        182912        182912
 MEMORY| MemLikelyFree       191926648     191926648     191926648     191926648

 
 GENERATE|  Preliminary Number of Bonds generated:                             0
 GENERATE|  Achieved consistency in connectivity generation.

 *******************************************************************************
 *******************************************************************************
 **                                                                           **
 **     #####                         ##              ##                      **
 **    ##   ##            ##          ##              ##                      **
 **   ##     ##                       ##            ######                    **
 **   ##     ##  ##   ##  ##   #####  ##  ##   ####   ##    #####    #####    **
 **   ##     ##  ##   ##  ##  ##      ## ##   ##      ##   ##   ##  ##   ##   **
 **   ##  ## ##  ##   ##  ##  ##      ####     ###    ##   ######   ######    **
 **    ##  ###   ##   ##  ##  ##      ## ##      ##   ##   ##       ##        **
 **     #######   #####   ##   #####  ##  ##  ####    ##    #####   ##        **
 **           ##                                                    ##        **
 **                                                                           **
 **                                                ... make the atoms dance   **
 **                                                                           **
 **            Copyright (C) by CP2K developers group (2000-2025)             **
 **                      J. Chem. Phys. 152, 194103 (2020)                    **
 **                                                                           **
 *******************************************************************************


 TOTAL NUMBERS AND MAXIMUM NUMBERS

  Total number of            - Atomic kinds:                                   4
                             - Atoms:                                         92
                             - Shell sets:                                    92
                             - Shells:                                       424
                             - Primitive Cartesian functions:                437
                             - Cartesian basis functions:                   1126
                             - Spherical basis functions:                   1052

  Maximum angular momentum of- Orbital basis functions:                        2
                             - Local part of the GTH pseudopotential:          2
                             - Non-local part of the GTH pseudopotential:      2


 SCF PARAMETERS         Density guess:                                    ATOMIC
                        --------------------------------------------------------
                        max_scf:                                             200
                        max_scf_history:                                       0
                        max_diis:                                              4
                        --------------------------------------------------------
                        eps_scf:                                        5.00E-06
                        eps_scf_history:                                0.00E+00
                        eps_diis:                                       1.00E-01
                        eps_eigval:                                     1.00E-05
                        --------------------------------------------------------
                        level_shift [a.u.]:                             0.000000
                        --------------------------------------------------------
                        No outer SCF

 Number of electrons:                                                        408
 Number of occupied orbitals:                                                204
 Number of molecular orbitals:                                               204

 Number of orbital functions:                                               1052
 Number of independent orbital functions:                                   1052

 Extrapolation method: initial_guess


 SCF WAVEFUNCTION OPTIMIZATION

  ----------------------------------- OT ---------------------------------------
  Minimizer      : DIIS                : direct inversion
                                         in the iterative subspace
                                         using   7 DIIS vectors
                                         safer DIIS on
  Preconditioner : FULL_SINGLE_INVERSE : inversion of 
                                         H + eS - 2*(Sc)(c^T*H*c+const)(Sc)^T
  Precond_solver : DEFAULT
  stepsize       :    0.08000000                  energy_gap     :    0.08000000
  eps_taylor     :   0.10000E-15                  max_taylor     :             4
  ----------------------------------- OT ---------------------------------------

  Step     Update method      Time    Convergence         Total energy    Change
  ------------------------------------------------------------------------------
     1 OT DIIS     0.80E-01    9.4     0.03627509      -879.6654572455 -8.80E+02
     2 OT DIIS     0.80E-01   12.0     0.11555038      -874.6816292789  4.98E+00
     3 OT DIIS     0.80E-01   12.0     0.03283198      -891.1046758316 -1.64E+01
     4 OT DIIS     0.80E-01   12.0     0.03261248      -893.5830228171 -2.48E+00
     5 OT DIIS     0.80E-01   12.0     0.01442232      -898.4671985116 -4.88E+00
     6 OT DIIS     0.80E-01   12.0     0.00992272      -902.3600911696 -3.89E+00
     7 OT DIIS     0.80E-01   12.0     0.00718529      -904.1974939223 -1.84E+00
     8 OT DIIS     0.80E-01   12.0     0.00516941      -905.4463372245 -1.25E+00
     9 OT DIIS     0.80E-01   12.0     0.00352685      -906.1756572394 -7.29E-01
    10 OT DIIS     0.80E-01   12.0     0.00277017      -906.5221863317 -3.47E-01
    11 OT DIIS     0.80E-01   12.0     0.00244279      -906.7238376828 -2.02E-01
    12 OT DIIS     0.80E-01   12.0     0.00202953      -906.9117176100 -1.88E-01
    13 OT DIIS     0.80E-01   12.0     0.00146988      -907.0764115884 -1.65E-01
    14 OT DIIS     0.80E-01   12.0     0.00108896      -907.1622467117 -8.58E-02
    15 OT DIIS     0.80E-01   12.0     0.00079319      -907.2112359897 -4.90E-02
    16 OT DIIS     0.80E-01   11.9     0.00068361      -907.2260495382 -1.48E-02
    17 OT DIIS     0.80E-01   12.0     0.00048901      -907.2489737090 -2.29E-02
    18 OT DIIS     0.80E-01   12.0     0.00034791      -907.2610756733 -1.21E-02
    19 OT DIIS     0.80E-01   12.0     0.00027503      -907.2672152358 -6.14E-03
    20 OT DIIS     0.80E-01   12.0     0.00021954      -907.2716069328 -4.39E-03
    21 OT DIIS     0.80E-01   12.0     0.00017061      -907.2743153080 -2.71E-03
    22 OT DIIS     0.80E-01   12.0     0.00014056      -907.2760570743 -1.74E-03
    23 OT DIIS     0.80E-01   12.0     0.00011590      -907.2774443954 -1.39E-03
    24 OT DIIS     0.80E-01   12.0     0.00009914      -907.2783265171 -8.82E-04
    25 OT DIIS     0.80E-01   12.0     0.00008282      -907.2791065163 -7.80E-04
    26 OT DIIS     0.80E-01   11.9     0.00007187      -907.2796239918 -5.17E-04
    27 OT DIIS     0.80E-01   12.0     0.00006300      -907.2800482459 -4.24E-04
    28 OT DIIS     0.80E-01   12.0     0.00005384      -907.2804553485 -4.07E-04
    29 OT DIIS     0.80E-01   12.0     0.00004897      -907.2806884992 -2.33E-04
    30 OT DIIS     0.80E-01   12.0     0.00004516      -907.2808782090 -1.90E-04
    31 OT DIIS     0.80E-01   12.0     0.00004026      -907.2811143310 -2.36E-04
    32 OT DIIS     0.80E-01   12.0     0.00003659      -907.2812983547 -1.84E-04
    33 OT DIIS     0.80E-01   12.0     0.00003313      -907.2814721005 -1.74E-04
    34 OT DIIS     0.80E-01   12.0     0.00003051      -907.2816035144 -1.31E-04
    35 OT DIIS     0.80E-01   12.0     0.00002848      -907.2817094054 -1.06E-04
    36 OT DIIS     0.80E-01   12.0     0.00002641      -907.2818159065 -1.07E-04
    37 OT DIIS     0.80E-01   12.0     0.00002495      -907.2818905298 -7.46E-05
    38 OT DIIS     0.80E-01   11.9     0.00002351      -907.2819650708 -7.45E-05
    39 OT DIIS     0.80E-01   12.0     0.00002181      -907.2820493141 -8.42E-05
    40 OT DIIS     0.80E-01   12.0     0.00002035      -907.2821169493 -6.76E-05
    41 OT DIIS     0.80E-01   12.0     0.00001885      -907.2821867673 -6.98E-05
    42 OT DIIS     0.80E-01   12.0     0.00001772      -907.2822381962 -5.14E-05
    43 OT DIIS     0.80E-01   11.9     0.00001692      -907.2822756069 -3.74E-05
    44 OT DIIS     0.80E-01   11.9     0.00001609      -907.2823133865 -3.78E-05
    45 OT DIIS     0.80E-01   12.0     0.00001538      -907.2823475683 -3.42E-05
    46 OT DIIS     0.80E-01   12.0     0.00001475      -907.2823802123 -3.26E-05
    47 OT DIIS     0.80E-01   12.0     0.00001416      -907.2824109707 -3.08E-05
    48 OT DIIS     0.80E-01   12.0     0.00001360      -907.2824404421 -2.95E-05
    49 OT DIIS     0.80E-01   11.9     0.00001308      -907.2824703825 -2.99E-05
    50 OT DIIS     0.80E-01   12.0     0.00001266      -907.2824948278 -2.44E-05
    51 OT DIIS     0.80E-01   12.0     0.00001232      -907.2825153115 -2.05E-05
    52 OT DIIS     0.80E-01   12.0     0.00001191      -907.2825402035 -2.49E-05
    53 OT DIIS     0.80E-01   12.0     0.00001146      -907.2825674161 -2.72E-05
    54 OT DIIS     0.80E-01   11.9     0.00001108      -907.2825916646 -2.42E-05
    55 OT DIIS     0.80E-01   12.0     0.00001067      -907.2826166286 -2.50E-05
    56 OT DIIS     0.80E-01   12.0     0.00001026      -907.2826429806 -2.64E-05
    57 OT DIIS     0.80E-01   12.0     0.00000993      -907.2826651035 -2.21E-05
    58 OT DIIS     0.80E-01   12.0     0.00000961      -907.2826837741 -1.87E-05
    59 OT DIIS     0.80E-01   12.0     0.00000930      -907.2827040424 -2.03E-05
    60 OT DIIS     0.80E-01   12.0     0.00000895      -907.2827250304 -2.10E-05
    61 OT DIIS     0.80E-01   12.0     0.00000860      -907.2827423116 -1.73E-05
    62 OT DIIS     0.80E-01   12.0     0.00000814      -907.2827634857 -2.12E-05
    63 OT DIIS     0.80E-01   12.0     0.00000773      -907.2827861002 -2.26E-05
    64 OT DIIS     0.80E-01   12.0     0.00000742      -907.2827975219 -1.14E-05
    65 OT DIIS     0.80E-01   11.9     0.00000699      -907.2828069495 -9.43E-06
    66 OT DIIS     0.80E-01   12.0     0.00000671      -907.2828166414 -9.69E-06
    67 OT DIIS     0.80E-01   12.0     0.00000612      -907.2828310279 -1.44E-05
    68 OT DIIS     0.80E-01   12.0     0.00000573      -907.2828393426 -8.31E-06
    69 OT DIIS     0.80E-01   12.0     0.00000524      -907.2828481737 -8.83E-06
    70 OT DIIS     0.80E-01   11.9     0.00000490      -907.2828546693 -6.50E-06

  *** SCF run converged in    70 steps ***


  Electronic density on regular grids:       -407.9999999954        0.0000000046
  Core density on regular grids:              407.9999999748       -0.0000000252
  Total charge density on r-space grids:       -0.0000000206
  Total charge density g-space grids:          -0.0000000206

  Overlap energy of the core charge distribution:               0.00000006168976
  Self energy of the core charge distribution:              -2342.23014539452743
  Core Hamiltonian energy:                                    654.98302183203680
  Hartree energy:                                             991.31616758338009
  Exchange-correlation energy:                               -211.35189875187166

  Total energy:                                              -907.28285466929265

 !-----------------------------------------------------------------------------!
                     Mulliken Population Analysis

 #  Atom  Element  Kind  Atomic population                           Net charge
       1     O        1          6.655942                             -0.655942
       2     O        1          6.655549                             -0.655549
       3     O        1          6.659367                             -0.659367
       4     O        1          6.679930                             -0.679930
       5     O        1          6.655938                             -0.655938
       6     O        1          6.652750                             -0.652750
       7     O        1          6.655421                             -0.655421
       8     O        1          6.652276                             -0.652276
       9     O        1          6.529064                             -0.529064
      10     O        1          6.432056                             -0.432056
      11     O        1          6.552857                             -0.552857
      12     O        1          6.383598                             -0.383598
      13     O        1          6.500275                             -0.500275
      14     O        1          6.505794                             -0.505794
      15     O        1          6.502958                             -0.502958
      16     O        1          6.512006                             -0.512006
      17     O        1          6.559523                             -0.559523
      18     O        1          6.497255                             -0.497255
      19     O        1          6.507634                             -0.507634
      20     O        1          6.550601                             -0.550601
      21     Si       2          3.054519                              0.945481
      22     Si       2          3.055450                              0.944550
      23     Si       2          3.038983                              0.961017
      24     Si       2          3.097638                              0.902362
      25     Si       2          3.055808                              0.944192
      26     Si       2          3.068590                              0.931410
      27     Si       2          3.039115                              0.960885
      28     Si       2          3.071348                              0.928652
      29     H        3          0.813902                              0.186098
      30     H        3          0.813043                              0.186957
      31     H        3          0.822031                              0.177969
      32     H        3          0.819013                              0.180987
      33     O        1          6.544341                             -0.544341
      34     O        1          6.505839                             -0.505839
      35     O        1          6.521073                             -0.521073
      36     O        1          6.526412                             -0.526412
      37     Al       4          1.717044                              1.282956
      38     Al       4          1.670883                              1.329117
      39     Al       4          1.672174                              1.327826
      40     Al       4          1.671637                              1.328363
      41     O        1          6.461665                             -0.461665
      42     O        1          6.651773                             -0.651773
      43     O        1          6.661085                             -0.661085
      44     O        1          6.650066                             -0.650066
      45     O        1          6.547900                             -0.547900
      46     O        1          6.650397                             -0.650397
      47     O        1          6.660172                             -0.660172
      48     O        1          6.650416                             -0.650416
      49     O        1          6.502704                             -0.502704
      50     O        1          6.506936                             -0.506936
      51     O        1          6.560169                             -0.560169
      52     O        1          6.493989                             -0.493989
      53     O        1          6.505640                             -0.505640
      54     O        1          6.558423                             -0.558423
      55     O        1          6.529011                             -0.529011
      56     O        1          6.491933                             -0.491933
      57     O        1          6.566350                             -0.566350
      58     O        1          6.493730                             -0.493730
      59     O        1          6.501429                             -0.501429
      60     O        1          6.541435                             -0.541435
      61     Si       2          3.000088                              0.999912
      62     Si       2          3.063497                              0.936503
      63     Si       2          3.036505                              0.963495
      64     Si       2          3.066942                              0.933058
      65     Si       2          3.090575                              0.909425
      66     Si       2          3.046779                              0.953221
      67     Si       2          3.052869                              0.947131
      68     H        3          0.823123                              0.176877
      69     H        3          0.815978                              0.184022
      70     H        3          0.804219                              0.195781
      71     H        3          0.820164                              0.179836
      72     O        1          6.515947                             -0.515947
      73     O        1          6.522529                             -0.522529
      74     O        1          6.543747                             -0.543747
      75     O        1          6.525930                             -0.525930
      76     Al       4          1.666582                              1.333418
      77     Al       4          1.677789                              1.322211
      78     Al       4          1.706683                              1.293317
      79     Al       4          1.674606                              1.325394
      80     O        1          6.422256                             -0.422256
      81     O        1          6.569605                             -0.569605
      82     O        1          6.426256                             -0.426256
      83     H        3          0.797255                              0.202745
      84     H        3          0.812398                              0.187602
      85     H        3          0.812072                              0.187928
      86     H        3          0.809281                              0.190719
      87     H        3          0.769184                              0.230816
      88     H        3          0.814535                              0.185465
      89     H        3          0.801503                              0.198497
      90     H        3          0.814346                              0.185654
      91     H        3          0.823998                              0.176002
      92     H        3          0.807899                              0.192101
 # Total charge                            408.000000                  0.000000

 !-----------------------------------------------------------------------------!

 !-----------------------------------------------------------------------------!
                           Hirshfeld Charges

  #Atom  Element  Kind  Ref Charge     Population                    Net charge
      1       O      1       6.000          6.291                        -0.291
      2       O      1       6.000          6.297                        -0.297
      3       O      1       6.000          6.295                        -0.295
      4       O      1       6.000          6.312                        -0.312
      5       O      1       6.000          6.291                        -0.291
      6       O      1       6.000          6.294                        -0.294
      7       O      1       6.000          6.293                        -0.293
      8       O      1       6.000          6.294                        -0.294
      9       O      1       6.000          6.274                        -0.274
     10       O      1       6.000          6.281                        -0.281
     11       O      1       6.000          6.256                        -0.256
     12       O      1       6.000          6.278                        -0.278
     13       O      1       6.000          6.282                        -0.282
     14       O      1       6.000          6.286                        -0.286
     15       O      1       6.000          6.271                        -0.271
     16       O      1       6.000          6.271                        -0.271
     17       O      1       6.000          6.248                        -0.248
     18       O      1       6.000          6.265                        -0.265
     19       O      1       6.000          6.271                        -0.271
     20       O      1       6.000          6.253                        -0.253
     21       Si     2       4.000          3.448                         0.552
     22       Si     2       4.000          3.444                         0.556
     23       Si     2       4.000          3.445                         0.555
     24       Si     2       4.000          3.462                         0.538
     25       Si     2       4.000          3.447                         0.553
     26       Si     2       4.000          3.448                         0.552
     27       Si     2       4.000          3.444                         0.556
     28       Si     2       4.000          3.448                         0.552
     29       H      3       1.000          0.852                         0.148
     30       H      3       1.000          0.872                         0.128
     31       H      3       1.000          0.877                         0.123
     32       H      3       1.000          0.877                         0.123
     33       O      1       6.000          6.287                        -0.287
     34       O      1       6.000          6.277                        -0.277
     35       O      1       6.000          6.283                        -0.283
     36       O      1       6.000          6.284                        -0.284
     37       Al     4       3.000          2.553                         0.447
     38       Al     4       3.000          2.564                         0.436
     39       Al     4       3.000          2.573                         0.427
     40       Al     4       3.000          2.573                         0.427
     41       O      1       6.000          6.206                        -0.206
     42       O      1       6.000          6.294                        -0.294
     43       O      1       6.000          6.293                        -0.293
     44       O      1       6.000          6.293                        -0.293
     45       O      1       6.000          6.294                        -0.294
     46       O      1       6.000          6.305                        -0.305
     47       O      1       6.000          6.291                        -0.291
     48       O      1       6.000          6.300                        -0.300
     49       O      1       6.000          6.268                        -0.268
     50       O      1       6.000          6.273                        -0.273
     51       O      1       6.000          6.254                        -0.254
     52       O      1       6.000          6.266                        -0.266
     53       O      1       6.000          6.272                        -0.272
     54       O      1       6.000          6.252                        -0.252
     55       O      1       6.000          6.273                        -0.273
     56       O      1       6.000          6.327                        -0.327
     57       O      1       6.000          6.256                        -0.256
     58       O      1       6.000          6.272                        -0.272
     59       O      1       6.000          6.275                        -0.275
     60       O      1       6.000          6.285                        -0.285
     61       Si     2       4.000          3.436                         0.564
     62       Si     2       4.000          3.448                         0.552
     63       Si     2       4.000          3.444                         0.556
     64       Si     2       4.000          3.445                         0.555
     65       Si     2       4.000          3.465                         0.535
     66       Si     2       4.000          3.448                         0.552
     67       Si     2       4.000          3.456                         0.544
     68       H      3       1.000          0.877                         0.123
     69       H      3       1.000          0.881                         0.119
     70       H      3       1.000          0.844                         0.156
     71       H      3       1.000          0.877                         0.123
     72       O      1       6.000          6.284                        -0.284
     73       O      1       6.000          6.285                        -0.285
     74       O      1       6.000          6.280                        -0.280
     75       O      1       6.000          6.286                        -0.286
     76       Al     4       3.000          2.569                         0.431
     77       Al     4       3.000          2.573                         0.427
     78       Al     4       3.000          2.571                         0.429
     79       Al     4       3.000          2.570                         0.430
     80       O      1       6.000          6.226                        -0.226
     81       O      1       6.000          6.245                        -0.245
     82       O      1       6.000          6.280                        -0.280
     83       H      3       1.000          0.812                         0.188
     84       H      3       1.000          0.871                         0.129
     85       H      3       1.000          0.880                         0.120
     86       H      3       1.000          0.908                         0.092
     87       H      3       1.000          0.810                         0.190
     88       H      3       1.000          0.912                         0.088
     89       H      3       1.000          0.823                         0.177
     90       H      3       1.000          0.848                         0.152
     91       H      3       1.000          0.848                         0.152
     92       H      3       1.000          0.887                         0.113

  Total Charge                                                           -0.000
 !-----------------------------------------------------------------------------!

 ENERGY| Total FORCE_EVAL ( QS ) energy [hartree]           -907.282854669292647

 -------------------------------------------------------------------------------
 -                                                                             -
 -                                DBCSR STATISTICS                             -
 -                                                                             -
 -------------------------------------------------------------------------------
 COUNTER                                    TOTAL       BLAS       SMM       ACC
 flops     5 x    12 x    12                51840       0.0%    100.0%      0.0%     
 flops    12 x    12 x  1052               302976       0.0%    100.0%      0.0%     
 flops     5 x    32 x    12               414720       0.0%    100.0%      0.0%     
 flops     5 x    12 x    32               414720       0.0%    100.0%      0.0%     
 flops    13 x    12 x    12               554112       0.0%    100.0%      0.0%     
 flops    12 x    32 x  1052              2423808       0.0%    100.0%      0.0%     
 flops    32 x    12 x  1052              2423808       0.0%    100.0%      0.0%     
 flops    13 x    32 x    12              4432896       0.0%    100.0%      0.0%     
 flops    13 x    12 x    32              4432896       0.0%    100.0%      0.0%     
 flops     5 x    32 x    32              7741440       0.0%    100.0%      0.0%     
 flops     5 x    12 x     5             19447200       0.0%    100.0%      0.0%     
 flops    32 x    32 x  1052             45244416       0.0%    100.0%      0.0%     
 flops    13 x    32 x    32             82747392       0.0%    100.0%      0.0%     
 flops     5 x     5 x   204             88648200       0.0%    100.0%      0.0%     
 flops     5 x    12 x    13            202023120       0.0%    100.0%      0.0%     
 flops    13 x    12 x     5            202023120       0.0%    100.0%      0.0%     
 flops     5 x    32 x     5            311155200       0.0%    100.0%      0.0%     
 flops     5 x    13 x   204            836732520       0.0%    100.0%      0.0%     
 flops    13 x     5 x   204            868742160       0.0%    100.0%      0.0%     
 flops    13 x    12 x    13           2376994464       0.0%    100.0%      0.0%     
 flops     5 x    32 x    13           3232369920       0.0%    100.0%      0.0%     
 flops    13 x    32 x     5           3232369920       0.0%    100.0%      0.0%     
 flops    13 x    13 x   204          10197931848       0.0%    100.0%      0.0%     
 flops   204 x   204 x   204          10595100672       0.0%    100.0%      0.0%     
 flops   204 x   204 x  1052          24429257856       0.0%    100.0%      0.0%     
 flops  1052 x   204 x   204          30470902272       0.0%    100.0%      0.0%     
 flops  1052 x   204 x  1052          32059001472       0.0%    100.0%      0.0%     
 flops    13 x    32 x    13          38031911424       0.0%    100.0%      0.0%     
 flops inhomo. stacks                           0       0.0%      0.0%      0.0%
 flops total                       157.305796E+09       0.0%    100.0%      0.0%
 flops max/rank                    157.305796E+09       0.0%    100.0%      0.0%
 matmuls inhomo. stacks                         0       0.0%      0.0%      0.0%
 matmuls total                            6369621       0.0%    100.0%      0.0%
 number of processed stacks                  8926       0.0%    100.0%      0.0%
 average stack size                                     0.0     713.6       0.0
 marketing flops                   196.337582E+09
 -------------------------------------------------------------------------------
 # multiplications                           1544
 max memory usage/rank               2.291032E+09
 # max total images/rank                        1
 # max 3D layers                                1
 # MPI messages exchanged                       0
 -------------------------------------------------------------------------------
 -                                                                             -
 -                      DBCSR MESSAGE PASSING PERFORMANCE                      -
 -                                                                             -
 -------------------------------------------------------------------------------
 ROUTINE             CALLS      AVE VOLUME [Bytes]
 MP_Bcast               29                     12.
 MP_Allreduce         8457                     21.
 MP_Alltoall          5122                 130751.
 MP_ISend             6172                  15393.
 MP_IRecv             6172                  15393.
 -------------------------------------------------------------------------------

 -------------------------------------------------------------------------------
 -                                                                             -
 -                                DBM STATISTICS                               -
 -                                                                             -
 -------------------------------------------------------------------------------
    M  x    N  x    K                                          COUNT     PERCENT
 -------------------------------------------------------------------------------

 -------------------------------------------------------------------------------
 -                                                                             -
 -                                GRID STATISTICS                              -
 -                                                                             -
 -------------------------------------------------------------------------------
 LP    KERNEL             BACKEND                              COUNT     PERCENT
 4     collocate ortho    CPU                                2826510      33.00%
 4     integrate ortho    CPU                                2786700      32.53%
 3     collocate ortho    CPU                                1260747      14.72%
 3     integrate ortho    CPU                                1242990      14.51%
 2     collocate ortho    CPU                                 225212       2.63%
 2     integrate ortho    CPU                                 222040       2.59%
 0     collocate general  CPU                                    828       0.01%
 0     integrate general  CPU                                    736       0.01%
 -------------------------------------------------------------------------------

 MEMORY| Estimated peak process memory [MiB]                                2175

 -------------------------------------------------------------------------------
 -                                                                             -
 -                         MESSAGE PASSING PERFORMANCE                         -
 -                                                                             -
 -------------------------------------------------------------------------------

 ROUTINE             CALLS      AVE VOLUME [Bytes]
 MP_Group                4
 MP_Bcast             5073                   1257.
 MP_Allreduce        13127                   1089.
 MP_Sync                74
 -------------------------------------------------------------------------------


 -------------------------------------------------------------------------------
 -                                                                             -
 -                           R E F E R E N C E S                               -
 -                                                                             -
 -------------------------------------------------------------------------------
 
 CP2K version 2025.1, the CP2K developers group (2025).
 CP2K is freely available from https://www.cp2k.org/ .
 
 T. D. Kuehne, M. Iannuzzi, M. Del Ben, V. V. Rybkin, P. Seewald, F. Stein, T. 
 Laino, R. Z. Khaliullin, O. Schuett, F. Schiffmann, D. Golze, J. Wilhelm, S. 
 Chulkov, M. H. Bani-Hashemian, V. Weber, U. Borstnik, M. Taillefumier, A. S. 
 Jakobovits, A. Lazzaro, H. Pabst, T. Mueller, R. Schade, M. Guidon, S. 
 Andermatt, N. Holmberg, G. K. Schenter, A. Hehn, A. Bussy, F. Belleflamme, G. 
 Tabacchi, A. Gloess, M. Lass, I. Bethune, C. J. Mundy, C. Plessl, M. Watkins, 
 J. VandeVondele, M. Krack, J. Hutter.
 J. Chem. Phys. 152, 194103 (2020).
 CP2K: An electronic structure and molecular dynamics software package - 
 Quickstep: Efficient and accurate electronic structure calculations.
 https://doi.org/10.1063/5.0007045

 O. Schuett, P. Messmer, J. Hutter, J. VandeVondele.
 Electronic Structure Calculations on Graphics Processing Units, 173-190 (2016).
 GPU-Accelerated Sparse Matrix-Matrix Multiplication for Linear Scaling Density 
 Functional Theory.
 https://doi.org/10.1002/9781118670712.ch8

 A. Heinecke, G. Henry, M. Hutchinson, H. Pabst.
 Proceedings of Intl. Supercomputing Conference, 981-991 (2016).
 LIBXSMM: Accelerating Small Matrix Multiplications by Runtime Code Generation.
 https://doi.org/10.1109/SC.2016.83

 J. Hutter, M. Iannuzzi, F. Schiffmann, J. VandeVondele.
 WIREs Comput Mol Sci. 4, 15-25 (2014).
 CP2K: atomistic simulations of condensed matter systems.
 https://doi.org/10.1002/wcms.1159

 U. Borstnik, J. VandeVondele, V. Weber, J. Hutter.
 Parallel Comput. 40, 47-58 (2014).
 Sparse matrix multiplication: The distributed block-compressed sparse row 
 library.
 https://doi.org/10.1016/j.parco.2014.03.012

 A. Marek, V. Blum, R. Johanni, V. Havu, B. Lang, T. Auckenthaler, A. Heinecke, 
 H. Bungartz, H. Lederer.
 J. Phys. Condens. Matter 26, 213201 (2014).
 The ELPA library: scalable parallel eigenvalue solutions for electronic 
 structure theory and computational science.
 https://doi.org/10.1088/0953-8984/26/21/213201

 J. VandeVondele, J. Hutter.
 J. Chem. Phys. 127, 114105 (2007).
 Gaussian basis sets for accurate calculations on molecular systems in gas and 
 condensed phases.
 https://doi.org/10.1063/1.2770708

 J. VandeVondele, M. Krack, F. Mohamed, M. Parrinello, T. Chassaing, J. Hutter.
 Comput. Phys. Commun. 167, 103-128 (2005).
 QUICKSTEP: Fast and accurate density functional calculations using a mixed 
 Gaussian and plane waves approach.
 https://doi.org/10.1016/j.cpc.2004.12.014

 M. Krack.
 Theor. Chem. Acc. 114, 145-152 (2005).
 Pseudopotentials for H to Kr optimized for gradient-corrected 
 exchange-correlation functionals.
 https://doi.org/10.1007/s00214-005-0655-y

 M. Frigo, S. G. Johnson.
 Proc. IEEE 93, 216-231 (2005).
 The design and implementation of FFTW3.
 https://doi.org/10.1109/JPROC.2004.840301

 J. VandeVondele, J. Hutter.
 J. Chem. Phys. 118, 4365-4369 (2003).
 An efficient orbital transformation method for electronic structure 
 calculations.
 https://doi.org/10.1063/1.1543154

 C. Hartwigsen, S. Goedecker, J. Hutter.
 Phys. Rev. B 58, 3641-3662 (1998).
 Relativistic separable dual-space Gaussian pseudopotentials from H to Rn.
 https://doi.org/10.1103/PhysRevB.58.3641

 G. Lippert, J. Hutter, M. Parrinello.
 Mol. Phys. 92, 477-487 (1997).
 A hybrid Gaussian and plane wave density functional scheme.
 https://doi.org/10.1080/002689797170220

 S. Goedecker, M. Teter, J. Hutter.
 Phys. Rev. B 54, 1703-1710 (1996).
 Separable dual-space Gaussian pseudopotentials.
 https://doi.org/10.1103/PhysRevB.54.1703

 J. P. Perdew, K. Burke, M. Ernzerhof.
 Phys. Rev. Lett. 77, 3865-3868 (1996).
 Generalized gradient approximation made simple.
 https://doi.org/10.1103/PhysRevLett.77.3865


 -------------------------------------------------------------------------------
 -                                                                             -
 -                                T I M I N G                                  -
 -                                                                             -
 -------------------------------------------------------------------------------
 SUBROUTINE                       CALLS  ASD         SELF TIME        TOTAL TIME
                                MAXIMUM       AVERAGE  MAXIMUM  AVERAGE  MAXIMUM
 CP2K                                 1  1.0    0.014    0.014  850.658  850.658
 qs_energies                          1  2.0    0.000    0.000  848.463  848.463
 scf_env_do_scf                       1  3.0    0.000    0.000  838.433  838.433
 scf_env_do_scf_inner_loop           70  4.0    0.009    0.009  829.167  829.167
 qs_ks_update_qs_env                 71  5.0    0.001    0.001  598.571  598.571
 rebuild_ks_matrix                   70  6.0    0.000    0.000  598.450  598.450
 qs_ks_build_kohn_sham_matrix        70  7.0    0.009    0.009  598.450  598.450
 fft_wrap_pw1pw2                   1196 10.3    0.015    0.015  356.746  356.746
 fft_wrap_pw1pw2_200                773 11.7    8.925    8.925  350.418  350.418
 qs_vxc_create                       70  8.0    0.001    0.001  336.213  336.213
 xc_vxc_pw_create                    70  9.0   20.953   20.953  336.212  336.212
 fft3d_s                           1197 12.3  235.672  235.672  235.700  235.700
 qs_rho_update_rho_low               71  5.0    0.000    0.000  231.817  231.817
 calculate_rho_elec                  71  6.0    2.486    2.486  231.816  231.816
 xc_pw_derive                       420 11.0    0.003    0.003  209.159  209.159
 sum_up_and_integrate                70  8.0    0.001    0.001  207.528  207.528
 integrate_v_rspace                  70  9.0    0.082    0.082  194.148  194.148
 grid_collocate_task_list            71  7.0  158.444  158.444  158.444  158.444
 xc_rho_set_and_dset_create          70 10.0   14.690   14.690  157.913  157.913
 grid_integrate_task_list            70 10.0  156.559  156.559  156.559  156.559
 xc_pw_divergence                    70 10.0    0.002    0.002  147.763  147.763
 density_rs2pw                       71  7.0    0.004    0.004   70.886   70.886
 pw_scatter_s                       631 12.7   46.589   46.589   46.589   46.589
 potential_pw2rs                     70 10.0    0.067    0.067   37.507   37.507
 xc_functional_eval                  70 11.0    0.001    0.001   35.247   35.247
 pbe_lda_eval                        70 12.0   35.246   35.246   35.246   35.246
 pw_gather_s                        565 11.9   30.384   30.384   30.384   30.384
 pw_axpy                            704  9.3   29.216   29.216   29.216   29.216
 pw_derive                          630 11.3   20.567   20.567   20.567   20.567
 pw_copy_from_array                 631 12.7   18.631   18.631   18.631   18.631
 -------------------------------------------------------------------------------

 The number of warnings for this run is : 0
 
 -------------------------------------------------------------------------------
  **** **** ******  **  PROGRAM ENDED AT                 2026-10-08 05:07:59.849
 ***** ** ***  *** **   PROGRAM RAN ON                                    r6i5n2
 **    ****   ******    PROGRAM RAN BY                                   a266017
 ***** **    ** ** **   PROGRAM PROCESS ID                                976745
  **** **  *******  **  PROGRAM STOPPED IN /home/g7/a266017/VASP/cp2k/runs/rib_y
                                           _o00_si
